User:   nicog@vera03-2
Date:   Thu Feb 23 09:22:05 2023
Arch:   x86_64
Pid:    921937
CWD:    /cephyr/users/nicog/Vera/Computational_Materials_2023/A4
Python: 3.10.4
gpaw:   /apps/Arch/software/GPAW/22.8.0-foss-2022a/lib/python3.10/site-packages/gpaw
_gpaw:  /apps/Arch/software/GPAW/22.8.0-foss-2022a/lib/python3.10/site-packages/
        _gpaw.cpython-310-x86_64-linux-gnu.so
ase:    /apps/Arch/software/ASE/3.22.1-foss-2022a/lib/python3.10/site-packages/ase (version 3.22.1)
numpy:  /apps/Arch/software/SciPy-bundle/2022.05-foss-2022a/lib/python3.10/site-packages/numpy (version 1.22.3)
scipy:  /apps/Arch/software/SciPy-bundle/2022.05-foss-2022a/lib/python3.10/site-packages/scipy (version 1.8.1)
units:  Angstrom and eV
cores: 8
OpenMP: False
OMP_NUM_THREADS: 1

Input parameters:
  kpts: [1 1 1]
  mode: {ecut: 450.00000000000006,
         name: pw}
  spinpol: True
  xc: PBE

System changes: positions, numbers, cell, pbc, initial_charges, initial_magmoms

Initialize ...

species:
  O:
    name: Oxygen
    id: 32ecd46bf208036f09c70b0ec9a88b78
    Z: 8.0
    valence: 6
    core: 2
    charge: 0.0
    file: /apps/Common/software/GPAW-setups/0.9.20000/O.PBE.gz
    compensation charges: {type: gauss,
                           rc: 0.21,
                           lmax: 2}
    cutoffs: {filter: 1.17,
              core: 0.83}
    valence states:
      #              energy  rcut
      - 2s(2.00)   -23.961   0.688
      - 2p(4.00)    -9.029   0.598
      -  s           3.251   0.688
      -  p          18.182   0.598
      -  d           0.000   0.619

    # Using partial waves for O as LCAO basis

Reference energy: -4081.704602  # eV

Spin-polarized calculation.
Magnetic moment: 3.400000

Convergence criteria:
 Maximum [total energy] change in last 3 cyles: 0.0005 eV / electron
 Maximum integral of absolute [dens]ity change: 0.0001 electrons / valence electron
 Maximum integral of absolute [eigenst]ate change: 4e-08 eV^2 / valence electron
 Maximum number of scf [iter]ations: 333
 (Square brackets indicate name in SCF output, whereas a 'c' in
 the SCF output indicates the quantity has converged.)

Symmetries present (total): 16

  ( 1  0  0)  ( 1  0  0)  ( 1  0  0)  ( 1  0  0)  ( 1  0  0)  ( 1  0  0)
  ( 0  1  0)  ( 0  1  0)  ( 0  0  1)  ( 0  0  1)  ( 0  0 -1)  ( 0  0 -1)
  ( 0  0  1)  ( 0  0 -1)  ( 0  1  0)  ( 0 -1  0)  ( 0  1  0)  ( 0 -1  0)

  ( 1  0  0)  ( 1  0  0)  (-1  0  0)  (-1  0  0)  (-1  0  0)  (-1  0  0)
  ( 0 -1  0)  ( 0 -1  0)  ( 0  1  0)  ( 0  1  0)  ( 0  0  1)  ( 0  0  1)
  ( 0  0  1)  ( 0  0 -1)  ( 0  0  1)  ( 0  0 -1)  ( 0  1  0)  ( 0 -1  0)

  (-1  0  0)  (-1  0  0)  (-1  0  0)  (-1  0  0)
  ( 0  0 -1)  ( 0  0 -1)  ( 0 -1  0)  ( 0 -1  0)
  ( 0  1  0)  ( 0 -1  0)  ( 0  0  1)  ( 0  0 -1)

1 k-point (Gamma)
1 k-point in the irreducible part of the Brillouin zone
       k-points in crystal coordinates                weights
   0:     0.00000000    0.00000000    0.00000000          1/1

Wave functions: Plane wave expansion
  Cutoff energy: 450.000 eV
  Number of coefficients: 37529 (reduced to 18765)
  Pulay-stress correction: 0.000000 eV/Ang^3 (de/decut=0.000000)
  Using FFTW library
  ScaLapack parameters: grid=1x1, blocksize=None
  Wavefunction extrapolation:
    Improved wavefunction reuse through dual PAW basis

Occupation numbers: Fermi-Dirac:
  width: 0.1000  # eV

Eigensolver
   Davidson(niter=2)

Densities:
  Coarse grid: 60*60*60 grid
  Fine grid: 120*120*120 grid
  Total Charge: 0.000000

Density mixing:
  Method: difference
  Backend: pulay
  Linear mixing parameter: 0.05
  old densities: 5
  Damping of long wavelength oscillations: 50

Hamiltonian:
  XC and Coulomb potentials evaluated on a 120*120*120 grid
  Using the PBE Exchange-Correlation functional
  External potential:
    NoExternalPotential

XC parameters: PBE with 2 nearest neighbor stencil

Total number of cores used: 8
Domain decomposition: 2 x 2 x 2

Number of atoms: 2
Number of atomic orbitals: 8
Number of bands in calculation: 8
Number of valence electrons: 12
Bands to converge: occupied

... initialized

Initializing position-dependent things.

Density initialized from atomic densities
Creating initial wave functions:
  8 bands from LCAO basis set

 |      |         O O                |

Positions:
   0 O      5.400000    6.000000    6.000000    ( 0.0000,  0.0000,  1.7000)
   1 O      6.600000    6.000000    6.000000    ( 0.0000,  0.0000,  1.7000)

Unit cell:
           periodic     x           y           z      points  spacing
  1. axis:    yes   12.000000    0.000000    0.000000    60     0.2000
  2. axis:    yes    0.000000   12.000000    0.000000    60     0.2000
  3. axis:    yes    0.000000    0.000000   12.000000    60     0.2000

  Lengths:  12.000000  12.000000  12.000000
  Angles:   90.000000  90.000000  90.000000

Effective grid spacing dv^(1/3) = 0.2000

     iter     time        total  log10-change:  magmom
                         energy  eigst   dens
iter:   1 09:22:09    -8.189971                  +3.3997
iter:   2 09:22:10    -8.809763  -1.24  -1.19    +2.4199
iter:   3 09:22:11    -8.733053  -1.54  -1.22    +1.9824
iter:   4 09:22:11    -8.730141  -1.89  -1.59    +1.9929
iter:   5 09:22:12    -8.728284c -2.72  -1.97    +1.9984
iter:   6 09:22:13    -8.727572c -3.30  -2.04    +1.9997
iter:   7 09:22:14    -8.727812c -3.72  -2.86    +1.9996
iter:   8 09:22:15    -8.727657c -4.21  -2.78    +1.9999
iter:   9 09:22:16    -8.727609c -4.95  -2.95    +1.9999
iter:  10 09:22:17    -8.727556c -4.63  -3.06    +1.9999
iter:  11 09:22:18    -8.727550c -5.86  -3.47    +2.0000
iter:  12 09:22:19    -8.727547c -6.14  -3.70    +2.0000
iter:  13 09:22:20    -8.727547c -6.60  -4.40c   +2.0000
iter:  14 09:22:21    -8.727547c -7.49c -4.40c   +2.0000

Converged after 14 iterations.

Dipole moment: (0.000000, -0.000000, -0.000000) |e|*Ang

Total magnetic moment: (0.000000, 0.000000, 1.999957)
Local magnetic moments:
   0 O  ( 0.000000,  0.000000,  0.713526)
   1 O  ( 0.000000,  0.000000,  0.713526)

Energy contributions relative to reference atoms: (reference = -4081.704602)

Kinetic:         +5.697628
Potential:       -5.057732
External:        +0.000000
XC:              -9.326699
Entropy (-ST):   -0.000053
Local:           -0.040718
Free energy:     -8.727573
Extrapolated:    -8.727547

Spin contamination: 0.026390 electrons
                   Up                     Down
 Band  Eigenvalues  Occupancy  Eigenvalues  Occupancy
    0    -33.14687    1.00000    -31.96047    1.00000
    1    -20.50002    1.00000    -18.70296    1.00000
    2    -13.52956    1.00000    -12.59560    1.00000
    3    -13.49740    1.00000    -11.65565    1.00000
    4    -13.49740    1.00000    -11.65565    1.00000
    5     -6.59428    0.99999     -4.30374    0.00001
    6     -6.59428    0.99999     -4.30374    0.00001
    7      0.61492    0.00000      0.77771    0.00000

Fermi level: -5.44901

Gap: 2.291 eV
Transition (v -> c):
  (s=0, k=0, n=6, [0.00, 0.00, 0.00]) -> (s=1, k=0, n=5, [0.00, 0.00, 0.00])
Timing:                              incl.     excl.
Hamiltonian:                         0.326     0.005   0.0% |
 Atomic:                             0.000     0.000   0.0% |
  XC Correction:                     0.000     0.000   0.0% |
 Calculate atomic Hamiltonians:      0.007     0.007   0.0% |
 Communicate:                        0.075     0.075   0.5% |
 Initialize Hamiltonian:             0.000     0.000   0.0% |
 Poisson:                            0.002     0.002   0.0% |
 XC 3D grid:                         0.236     0.236   1.5% ||
LCAO initialization:                 0.075     0.022   0.1% |
 LCAO eigensolver:                   0.003     0.000   0.0% |
  Calculate projections:             0.000     0.000   0.0% |
  DenseAtomicCorrection:             0.000     0.000   0.0% |
  Distribute overlap matrix:         0.001     0.001   0.0% |
  Orbital Layouts:                   0.001     0.001   0.0% |
  Potential matrix:                  0.001     0.001   0.0% |
 LCAO to grid:                       0.043     0.043   0.3% |
 Set positions (LCAO WFS):           0.007     0.003   0.0% |
  Basic WFS set positions:           0.001     0.001   0.0% |
  Basis functions set positions:     0.000     0.000   0.0% |
  P tci:                             0.000     0.000   0.0% |
  ST tci:                            0.001     0.001   0.0% |
  mktci:                             0.002     0.002   0.0% |
PWDescriptor:                        0.708     0.708   4.4% |-|
SCF-cycle:                          12.378     0.019   0.1% |
 Davidson:                           1.096     0.135   0.8% |
  Apply H:                           0.212     0.208   1.3% ||
   HMM T:                            0.004     0.004   0.0% |
  Subspace diag:                     0.252     0.003   0.0% |
   calc_h_matrix:                    0.233     0.011   0.1% |
    Apply H:                         0.222     0.218   1.4% ||
     HMM T:                          0.004     0.004   0.0% |
   diagonalize:                      0.010     0.010   0.1% |
   rotate_psi:                       0.006     0.006   0.0% |
  calc. matrices:                    0.476     0.061   0.4% |
   Apply H:                          0.415     0.407   2.6% ||
    HMM T:                           0.008     0.008   0.0% |
  diagonalize:                       0.014     0.014   0.1% |
  rotate_psi:                        0.007     0.007   0.0% |
 Density:                            6.982     0.000   0.0% |
  Atomic density matrices:           0.020     0.020   0.1% |
  Mix:                               1.024     1.024   6.4% |--|
  Multipole moments:                 0.002     0.002   0.0% |
  Pseudo density:                    5.936     0.164   1.0% |
   Symmetrize density:               5.772     5.772  36.2% |-------------|
 Hamiltonian:                        4.278     0.060   0.4% |
  Atomic:                            0.004     0.003   0.0% |
   XC Correction:                    0.000     0.000   0.0% |
  Calculate atomic Hamiltonians:     0.096     0.096   0.6% |
  Communicate:                       0.949     0.949   5.9% |-|
  Poisson:                           0.014     0.014   0.1% |
  XC 3D grid:                        3.156     3.156  19.8% |-------|
 Orthonormalize:                     0.003     0.000   0.0% |
  calc_s_matrix:                     0.001     0.001   0.0% |
  inverse-cholesky:                  0.001     0.001   0.0% |
  projections:                       0.001     0.001   0.0% |
  rotate_psi_s:                      0.000     0.000   0.0% |
Set symmetry:                        0.003     0.003   0.0% |
Other:                               2.467     2.467  15.5% |-----|
Total:                                        15.957 100.0%