User:   nicog@vera13-3
Date:   Fri Feb 24 14:59:08 2023
Arch:   x86_64
Pid:    2953712
CWD:    /cephyr/users/nicog/Vera/Computational_Materials_2023/A4
Python: 3.10.4
gpaw:   /apps/Arch/software/GPAW/22.8.0-foss-2022a/lib/python3.10/site-packages/gpaw
_gpaw:  /apps/Arch/software/GPAW/22.8.0-foss-2022a/lib/python3.10/site-packages/
        _gpaw.cpython-310-x86_64-linux-gnu.so
ase:    /apps/Arch/software/ASE/3.22.1-foss-2022a/lib/python3.10/site-packages/ase (version 3.22.1)
numpy:  /apps/Arch/software/SciPy-bundle/2022.05-foss-2022a/lib/python3.10/site-packages/numpy (version 1.22.3)
scipy:  /apps/Arch/software/SciPy-bundle/2022.05-foss-2022a/lib/python3.10/site-packages/scipy (version 1.8.1)
units:  Angstrom and eV
cores: 16
OpenMP: False
OMP_NUM_THREADS: 1

Input parameters:
  kpts: [4 4 1]
  mode: {ecut: 450.00000000000006,
         name: pw}
  spinpol: True
  xc: PBE

System changes: positions, numbers, cell, pbc, initial_charges, initial_magmoms

Initialize ...

species:
  Pt:
    name: Platinum
    id: 5ed695806aff0c961dba1a84acd7f4b2
    Z: 78.0
    valence: 16
    core: 62
    charge: 0.0
    file: /apps/Common/software/GPAW-setups/0.9.20000/Pt.PBE.gz
    compensation charges: {type: gauss,
                           rc: 0.41,
                           lmax: 2}
    cutoffs: {filter: 2.26,
              core: 2.26}
    valence states:
      #              energy  rcut
      - 6s(1.00)    -5.628   1.307
      - 5p(6.00)   -56.051   1.371
      - 6p(0.00)    -0.845   1.371
      - 5d(9.00)    -6.153   1.307
      -  s          21.583   1.307
      -  d          21.058   1.307

    # Using partial waves for Pt as LCAO basis

  O:
    name: Oxygen
    id: 32ecd46bf208036f09c70b0ec9a88b78
    Z: 8.0
    valence: 6
    core: 2
    charge: 0.0
    file: /apps/Common/software/GPAW-setups/0.9.20000/O.PBE.gz
    compensation charges: {type: gauss,
                           rc: 0.21,
                           lmax: 2}
    cutoffs: {filter: 1.17,
              core: 0.83}
    valence states:
      #              energy  rcut
      - 2s(2.00)   -23.961   0.688
      - 2p(4.00)    -9.029   0.598
      -  s           3.251   0.688
      -  p          18.182   0.598
      -  d           0.000   0.619

[...]

  C:
    name: Carbon
    id: 4aa54d4b901d75f77cc0ea3eec22967b
    Z: 6.0
    valence: 4
    core: 2
    charge: 0.0
    file: /apps/Common/software/GPAW-setups/0.9.20000/C.PBE.gz
    compensation charges: {type: gauss,
                           rc: 0.20,
                           lmax: 2}
    cutoffs: {filter: 1.14,
              core: 1.14}
    valence states:
      #              energy  rcut
      - 2s(2.00)   -13.751   0.635
      - 2p(2.00)    -5.284   0.635
      -  s          13.461   0.635
      -  p          21.927   0.635
      -  d           0.000   0.635

    # Using partial waves for C as LCAO basis

Reference energy: -13513203.275138  # eV

Spin-polarized calculation.
Magnetic moment: 0.000000

Convergence criteria:
 Maximum [total energy] change in last 3 cyles: 0.0005 eV / electron
 Maximum integral of absolute [dens]ity change: 0.0001 electrons / valence electron
 Maximum integral of absolute [eigenst]ate change: 4e-08 eV^2 / valence electron
 Maximum number of scf [iter]ations: 333
 (Square brackets indicate name in SCF output, whereas a 'c' in
 the SCF output indicates the quantity has converged.)

Symmetries present (total): 6

  ( 1  0  0)  ( 1 -1  0)  ( 0  1  0)  ( 0 -1  0)  (-1  1  0)  (-1  0  0)
  ( 0  1  0)  ( 0 -1  0)  ( 1  0  0)  ( 1 -1  0)  (-1  0  0)  (-1  1  0)
  ( 0  0  1)  ( 0  0  1)  ( 0  0  1)  ( 0  0  1)  ( 0  0  1)  ( 0  0  1)
Note: your k-points are not as symmetric as your crystal!

16 k-points: 4 x 4 x 1 Monkhorst-Pack grid
6 k-points in the irreducible part of the Brillouin zone
       k-points in crystal coordinates                weights
   0:     0.12500000   -0.12500000    0.00000000          2/16
   1:     0.12500000    0.12500000    0.00000000          2/16
   2:     0.37500000   -0.37500000    0.00000000          2/16
   3:     0.37500000   -0.12500000    0.00000000          4/16
   4:     0.37500000    0.12500000    0.00000000          4/16
   5:     0.37500000    0.37500000    0.00000000          2/16

Wave functions: Plane wave expansion
  Cutoff energy: 450.000 eV
  Number of coefficients (min, max): 22030, 22077
  Pulay-stress correction: 0.000000 eV/Ang^3 (de/decut=0.000000)
  Using FFTW library
  ScaLapack parameters: grid=1x1, blocksize=None
  Wavefunction extrapolation:
    Improved wavefunction reuse through dual PAW basis

Occupation numbers: Fermi-Dirac:
  width: 0.1000  # eV

Eigensolver
   Davidson(niter=2)

Densities:
  Coarse grid: 42*42*84 grid
  Fine grid: 84*84*168 grid
  Total Charge: 0.000000

Density mixing:
  Method: difference
  Backend: pulay
  Linear mixing parameter: 0.05
  old densities: 5
  Damping of long wavelength oscillations: 50

Hamiltonian:
  XC and Coulomb potentials evaluated on a 84*84*168 grid
  Using the PBE Exchange-Correlation functional
  External potential:
    NoExternalPotential

XC parameters: PBE with 2 nearest neighbor stencil

Total number of cores used: 16
Parallelization over k-points: 2
Domain decomposition: 2 x 2 x 2

Number of atoms: 29
Number of atomic orbitals: 332
Number of bands in calculation: 270
Number of valence electrons: 442
Bands to converge: occupied

... initialized

Initializing position-dependent things.

Density initialized from atomic densities
Creating initial wave functions:
  270 bands from LCAO basis set

       O
                 Pt     Pt     Pt
       C
            Pt    PPt    PPt   Pt
       Pt    PPt    PPt    Pt

        Pt     Pt    PPt    Pt    Pt

                Pt     Pt     Pt
           Pt     Pt     Pt

Positions:
   0 Pt     1.402546    0.809760    6.000000    ( 0.0000,  0.0000,  0.0000)
   1 Pt     4.207639    0.809760    6.000000    ( 0.0000,  0.0000,  0.0000)
   2 Pt     7.012732    0.809760    6.000000    ( 0.0000,  0.0000,  0.0000)
   3 Pt     2.805093    3.239042    6.000000    ( 0.0000,  0.0000,  0.0000)
   4 Pt     5.610185    3.239042    6.000000    ( 0.0000,  0.0000,  0.0000)
   5 Pt     8.415278    3.239042    6.000000    ( 0.0000,  0.0000,  0.0000)
   6 Pt     4.207639    5.668323    6.000000    ( 0.0000,  0.0000,  0.0000)
   7 Pt     7.012732    5.668323    6.000000    ( 0.0000,  0.0000,  0.0000)
   8 Pt     9.817824    5.668323    6.000000    ( 0.0000,  0.0000,  0.0000)
   9 Pt    -0.000000    1.619521    8.290349    ( 0.0000,  0.0000,  0.0000)
  10 Pt     2.805093    1.619521    8.290349    ( 0.0000,  0.0000,  0.0000)
  11 Pt     5.610185    1.619521    8.290349    ( 0.0000,  0.0000,  0.0000)
  12 Pt     1.402546    4.048802    8.290349    ( 0.0000,  0.0000,  0.0000)
  13 Pt     4.207639    4.048802    8.290349    ( 0.0000,  0.0000,  0.0000)
  14 Pt     7.012732    4.048802    8.290349    ( 0.0000,  0.0000,  0.0000)
  15 Pt     2.805093    6.478084    8.290349    ( 0.0000,  0.0000,  0.0000)
  16 Pt     5.610185    6.478084    8.290349    ( 0.0000,  0.0000,  0.0000)
  17 Pt     8.415278    6.478084    8.290349    ( 0.0000,  0.0000,  0.0000)
  18 Pt     0.000000    0.000000   10.580697    ( 0.0000,  0.0000,  0.0000)
  19 Pt     2.805093    0.000000   10.580697    ( 0.0000,  0.0000,  0.0000)
  20 Pt     5.610185    0.000000   10.580697    ( 0.0000,  0.0000,  0.0000)
  21 Pt     1.402546    2.429281   10.580697    ( 0.0000,  0.0000,  0.0000)
  22 Pt     4.207639    2.429281   10.580697    ( 0.0000,  0.0000,  0.0000)
  23 Pt     7.012732    2.429281   10.580697    ( 0.0000,  0.0000,  0.0000)
  24 Pt     2.805093    4.858563   10.580697    ( 0.0000,  0.0000,  0.0000)
  25 Pt     5.610185    4.858563   10.580697    ( 0.0000,  0.0000,  0.0000)
  26 Pt     8.415278    4.858563   10.580697    ( 0.0000,  0.0000,  0.0000)
  27 O      0.000000    0.000000   13.730697    ( 0.0000,  0.0000,  0.0000)
  28 C      0.000000    0.000000   12.580357    ( 0.0000,  0.0000,  0.0000)

Unit cell:
           periodic     x           y           z      points  spacing
  1. axis:    yes    8.415278    0.000000    0.000000    42     0.1735
  2. axis:    yes    4.207639    7.287844    0.000000    42     0.1735
  3. axis:    yes    0.000000    0.000000   16.580697    84     0.1974

  Lengths:   8.415278   8.415278  16.580697
  Angles:   90.000000  90.000000  60.000000

Effective grid spacing dv^(1/3) = 0.1900

     iter     time        total  log10-change:  magmom
                         energy  eigst   dens
iter:   1 14:59:52  -189.263553                  +0.0000
iter:   2 15:00:08  -186.573901  -1.16  -1.40    -0.0000
iter:   3 15:00:24  -182.729503  -1.79  -1.44    -0.0000
iter:   4 15:00:40  -183.238699  -1.67  -1.54    -0.0000
iter:   5 15:00:55  -178.016228  -1.90  -1.58    +0.0000
iter:   6 15:01:11  -177.767106  -2.52  -1.92    +0.0000
iter:   7 15:01:27  -177.625751  -2.77  -2.07    +0.0000
iter:   8 15:01:43  -177.608958c -3.33  -2.22    +0.0000
iter:   9 15:01:58  -177.520803c -3.09  -2.27    +0.0000
iter:  10 15:02:14  -177.523203c -3.37  -2.45    +0.0000
iter:  11 15:02:30  -177.481778c -3.75  -2.60    -0.0000
iter:  12 15:02:46  -177.471626c -3.80  -2.82    -0.0000
iter:  13 15:03:01  -177.471607c -4.15  -3.01    -0.0000
iter:  14 15:03:17  -177.471473c -4.84  -3.15    -0.0000
iter:  15 15:03:33  -177.472709c -5.01  -3.18    -0.0000
iter:  16 15:03:48  -177.474943c -4.89  -3.31    -0.0000
iter:  17 15:04:04  -177.475358c -5.10  -3.56    -0.0000
iter:  18 15:04:20  -177.475401c -5.84  -3.79    -0.0000
iter:  19 15:04:36  -177.475070c -5.92  -3.86    -0.0000
iter:  20 15:04:51  -177.474844c -6.22  -4.01c   -0.0000
iter:  21 15:05:07  -177.474730c -6.63  -4.13c   -0.0000
iter:  22 15:05:23  -177.474698c -7.27  -4.22c   -0.0000
iter:  23 15:05:39  -177.474645c -6.67  -4.26c   -0.0000
iter:  24 15:05:54  -177.474619c -7.25  -4.45c   -0.0000
iter:  25 15:06:10  -177.474598c -7.36  -4.43c   -0.0000
iter:  26 15:06:26  -177.474579c -7.78c -4.65c   -0.0000

Converged after 26 iterations.

Dipole moment: (-0.202091, -0.116677, 0.189780) |e|*Ang

Total magnetic moment: (0.000000, 0.000000, -0.000000)
Local magnetic moments:
   0 Pt ( 0.000000,  0.000000, -0.000000)
   1 Pt ( 0.000000,  0.000000,  0.000000)
   2 Pt ( 0.000000,  0.000000, -0.000000)
   3 Pt ( 0.000000,  0.000000,  0.000000)
   4 Pt ( 0.000000,  0.000000,  0.000000)
   5 Pt ( 0.000000,  0.000000,  0.000000)
   6 Pt ( 0.000000,  0.000000, -0.000000)
   7 Pt ( 0.000000,  0.000000,  0.000000)
   8 Pt ( 0.000000,  0.000000,  0.000000)
   9 Pt ( 0.000000,  0.000000, -0.000000)
  10 Pt ( 0.000000,  0.000000,  0.000000)
  11 Pt ( 0.000000,  0.000000,  0.000000)
  12 Pt ( 0.000000,  0.000000, -0.000000)
  13 Pt ( 0.000000,  0.000000,  0.000000)
  14 Pt ( 0.000000,  0.000000, -0.000000)
  15 Pt ( 0.000000,  0.000000, -0.000000)
  16 Pt ( 0.000000,  0.000000, -0.000000)
  17 Pt ( 0.000000,  0.000000, -0.000000)
  18 Pt ( 0.000000,  0.000000, -0.000000)
  19 Pt ( 0.000000,  0.000000, -0.000000)
  20 Pt ( 0.000000,  0.000000, -0.000000)
  21 Pt ( 0.000000,  0.000000, -0.000000)
  22 Pt ( 0.000000,  0.000000, -0.000000)
  23 Pt ( 0.000000,  0.000000, -0.000000)
  24 Pt ( 0.000000,  0.000000, -0.000000)
  25 Pt ( 0.000000,  0.000000, -0.000000)
  26 Pt ( 0.000000,  0.000000,  0.000000)
  27 O  ( 0.000000,  0.000000, -0.000000)
  28 C  ( 0.000000,  0.000000, -0.000000)

Energy contributions relative to reference atoms: (reference = -13513203.275138)

Kinetic:       -294.447013
Potential:     +220.809972
External:        +0.000000
XC:             -88.314058
Entropy (-ST):   -1.753622
Local:          -14.646668
Free energy:   -178.351389
Extrapolated:  -177.474579

Spin contamination: 0.000000 electrons
Showing only first 2 kpts
                      Up                     Down
 Kpt  Band  Eigenvalues  Occupancy  Eigenvalues  Occupancy
  0   219      1.54883    0.70683      1.54883    0.70683
  0   220      1.57102    0.65884      1.57102    0.65884
  0   221      1.58362    0.62999      1.58362    0.62999
  0   222      1.61142    0.56319      1.61142    0.56319

  1   219      1.39146    0.92083      1.39146    0.92083
  1   220      1.43370    0.88405      1.43370    0.88405
  1   221      1.45045    0.86575      1.45045    0.86575
  1   222      1.49168    0.81023      1.49168    0.81023

Fermi level: 1.63683

No gap

Forces in eV/Ang:
  0 Pt    0.00993    0.00573   -0.04172
  1 Pt   -0.00000    0.01246   -0.10118
  2 Pt   -0.00993    0.00573   -0.04172
  3 Pt    0.01079   -0.00623   -0.10118
  4 Pt   -0.01079   -0.00623   -0.10118
  5 Pt    0.00000    0.02153   -0.17995
  6 Pt    0.00000   -0.01146   -0.04172
  7 Pt    0.01865   -0.01077   -0.17995
  8 Pt   -0.01865   -0.01077   -0.17995
  9 Pt   -0.00000   -0.00467    0.04499
 10 Pt    0.01848    0.01067   -0.00630
 11 Pt   -0.01848    0.01067   -0.00630
 12 Pt    0.00997   -0.00575   -0.04314
 13 Pt    0.00000   -0.02134   -0.00630
 14 Pt   -0.00997   -0.00575   -0.04314
 15 Pt    0.00405    0.00234    0.04499
 16 Pt   -0.00405    0.00234    0.04499
 17 Pt   -0.00000    0.01151   -0.04314
 18 Pt    0.00000    0.00000    2.79517
 19 Pt    0.37160    0.00037    0.00442
 20 Pt   -0.37160    0.00037    0.00442
 21 Pt    0.18612    0.32163    0.00442
 22 Pt   -0.00000    0.00000    0.08732
 23 Pt   -0.18612    0.32163    0.00442
 24 Pt   -0.18548   -0.32200    0.00442
 25 Pt    0.18548   -0.32200    0.00442
 26 Pt    0.00000    0.00000    0.08598
 27 O    -0.00000    0.00000   -0.09765
 28 C     0.00000    0.00000   -1.87010

System changes: positions

[...]

Density initialized from wave functions

[...]

     iter     time        total  log10-change:  magmom
                         energy  eigst   dens
iter:   1 15:19:02  -178.047597  -2.75           -0.0000
iter:   2 15:19:18  -177.971896  -3.21  -2.43    -0.0000
iter:   3 15:19:34  -177.859112c -3.45  -2.41    -0.0000
iter:   4 15:19:50  -177.668946  -3.65  -2.51    -0.0000
iter:   5 15:20:05  -177.647553c -4.16  -3.00    -0.0000
iter:   6 15:20:21  -177.640736c -4.29  -3.08    -0.0000
iter:   7 15:20:37  -177.639241c -4.81  -3.38    -0.0000
iter:   8 15:20:53  -177.636099c -4.97  -3.44    -0.0000
iter:   9 15:21:08  -177.635538c -5.54  -3.59    -0.0000
iter:  10 15:21:24  -177.635560c -5.70  -3.72    -0.0000
iter:  11 15:21:40  -177.634929c -5.98  -3.69    -0.0000
iter:  12 15:21:56  -177.634947c -6.69  -4.04c   -0.0000
iter:  13 15:22:11  -177.635087c -6.81  -4.16c   -0.0000
iter:  14 15:22:27  -177.635149c -6.96  -4.25c   -0.0000
iter:  15 15:22:43  -177.635116c -7.47c -4.46c   +0.0000

[...]

System changes: positions

Initializing position-dependent things.

Density initialized from wave functions

       O
                 Pt     Pt     Pt
       C
            Pt    PPt    PPt   Pt
       Pt    PPt    PPt    Pt

        Pt     Pt    PPt    Pt    Pt

                Pt     Pt     Pt
           Pt     Pt     Pt

Positions:
   0 Pt     1.402546    0.809760    6.000000    ( 0.0000,  0.0000,  0.0000)
   1 Pt     4.207639    0.809760    6.000000    ( 0.0000,  0.0000,  0.0000)
   2 Pt     7.012732    0.809760    6.000000    ( 0.0000,  0.0000,  0.0000)
   3 Pt     2.805093    3.239042    6.000000    ( 0.0000,  0.0000,  0.0000)
   4 Pt     5.610185    3.239042    6.000000    ( 0.0000,  0.0000,  0.0000)
   5 Pt     8.415278    3.239042    6.000000    ( 0.0000,  0.0000,  0.0000)
   6 Pt     4.207639    5.668323    6.000000    ( 0.0000,  0.0000,  0.0000)
   7 Pt     7.012732    5.668323    6.000000    ( 0.0000,  0.0000,  0.0000)
   8 Pt     9.817824    5.668323    6.000000    ( 0.0000,  0.0000,  0.0000)
   9 Pt    -0.000000    1.619521    8.290349    ( 0.0000,  0.0000,  0.0000)
  10 Pt     2.805093    1.619521    8.290349    ( 0.0000,  0.0000,  0.0000)
  11 Pt     5.610185    1.619521    8.290349    ( 0.0000,  0.0000,  0.0000)
  12 Pt     1.402546    4.048802    8.290349    ( 0.0000,  0.0000,  0.0000)
  13 Pt     4.207639    4.048802    8.290349    ( 0.0000,  0.0000,  0.0000)
  14 Pt     7.012732    4.048802    8.290349    ( 0.0000,  0.0000,  0.0000)
  15 Pt     2.805093    6.478084    8.290349    ( 0.0000,  0.0000,  0.0000)
  16 Pt     5.610185    6.478084    8.290349    ( 0.0000,  0.0000,  0.0000)
  17 Pt     8.415278    6.478084    8.290349    ( 0.0000,  0.0000,  0.0000)
  18 Pt     0.000000    0.000000   10.580697    ( 0.0000,  0.0000,  0.0000)
  19 Pt     2.805093    0.000000   10.580697    ( 0.0000,  0.0000,  0.0000)
  20 Pt     5.610185    0.000000   10.580697    ( 0.0000,  0.0000,  0.0000)
  21 Pt     1.402546    2.429281   10.580697    ( 0.0000,  0.0000,  0.0000)
  22 Pt     4.207639    2.429281   10.580697    ( 0.0000,  0.0000,  0.0000)
  23 Pt     7.012732    2.429281   10.580697    ( 0.0000,  0.0000,  0.0000)
  24 Pt     2.805093    4.858563   10.580697    ( 0.0000,  0.0000,  0.0000)
  25 Pt     5.610185    4.858563   10.580697    ( 0.0000,  0.0000,  0.0000)
  26 Pt     8.415278    4.858563   10.580697    ( 0.0000,  0.0000,  0.0000)
  27 O     -0.000000   -0.000000   13.589983    ( 0.0000,  0.0000,  0.0000)
  28 C     -0.000000   -0.000000   12.435932    ( 0.0000,  0.0000,  0.0000)

Unit cell:
           periodic     x           y           z      points  spacing
  1. axis:    yes    8.415278    0.000000    0.000000    42     0.1735
  2. axis:    yes    4.207639    7.287844    0.000000    42     0.1735
  3. axis:    yes    0.000000    0.000000   16.580697    84     0.1974

  Lengths:   8.415278   8.415278  16.580697
  Angles:   90.000000  90.000000  60.000000

Effective grid spacing dv^(1/3) = 0.1900

     iter     time        total  log10-change:  magmom
                         energy  eigst   dens
iter:   1 15:26:34  -177.670082  -3.96           -0.0000
iter:   2 15:26:50  -177.679196  -4.25  -3.03    -0.0000
iter:   3 15:27:06  -177.658350c -4.87  -2.93    -0.0000
iter:   4 15:27:22  -177.656578c -5.45  -3.63    -0.0000
iter:   5 15:27:37  -177.655566c -5.32  -3.92    -0.0000
iter:   6 15:27:53  -177.655541c -6.41  -4.03c   +0.0000
iter:   7 15:28:09  -177.655504c -6.86  -4.14c   +0.0000
iter:   8 15:28:25  -177.655404c -6.50  -4.28c   +0.0000
iter:   9 15:28:40  -177.655348c -7.35  -4.55c   +0.0000
iter:  10 15:28:56  -177.655301c -7.05  -4.42c   +0.0000
iter:  11 15:29:12  -177.655291c -7.89c -4.61c   +0.0000

Converged after 11 iterations.

Dipole moment: (-0.216098, -0.124764, 0.092739) |e|*Ang

Total magnetic moment: (0.000000, 0.000000, 0.000000)
Local magnetic moments:
   0 Pt ( 0.000000,  0.000000, -0.000000)
   1 Pt ( 0.000000,  0.000000, -0.000000)
   2 Pt ( 0.000000,  0.000000, -0.000000)
   3 Pt ( 0.000000,  0.000000, -0.000000)
   4 Pt ( 0.000000,  0.000000, -0.000000)
   5 Pt ( 0.000000,  0.000000,  0.000000)
   6 Pt ( 0.000000,  0.000000, -0.000000)
   7 Pt ( 0.000000,  0.000000,  0.000000)
   8 Pt ( 0.000000,  0.000000,  0.000000)
   9 Pt ( 0.000000,  0.000000,  0.000000)
  10 Pt ( 0.000000,  0.000000, -0.000000)
  11 Pt ( 0.000000,  0.000000, -0.000000)
  12 Pt ( 0.000000,  0.000000,  0.000000)
  13 Pt ( 0.000000,  0.000000, -0.000000)
  14 Pt ( 0.000000,  0.000000,  0.000000)
  15 Pt ( 0.000000,  0.000000,  0.000000)
  16 Pt ( 0.000000,  0.000000,  0.000000)
  17 Pt ( 0.000000,  0.000000,  0.000000)
  18 Pt ( 0.000000,  0.000000, -0.000000)
  19 Pt ( 0.000000,  0.000000,  0.000000)
  20 Pt ( 0.000000,  0.000000,  0.000000)
  21 Pt ( 0.000000,  0.000000,  0.000000)
  22 Pt ( 0.000000,  0.000000, -0.000000)
  23 Pt ( 0.000000,  0.000000,  0.000000)
  24 Pt ( 0.000000,  0.000000,  0.000000)
  25 Pt ( 0.000000,  0.000000,  0.000000)
  26 Pt ( 0.000000,  0.000000,  0.000000)
  27 O  ( 0.000000,  0.000000,  0.000000)
  28 C  ( 0.000000,  0.000000,  0.000000)

Energy contributions relative to reference atoms: (reference = -13513203.275138)

Kinetic:       -289.091459
Potential:     +216.524843
External:        +0.000000
XC:             -89.597997
Entropy (-ST):   -1.736291
Local:          -14.622533
Free energy:   -178.523437
Extrapolated:  -177.655291

Spin contamination: 0.000000 electrons
Showing only first 2 kpts
                      Up                     Down
 Kpt  Band  Eigenvalues  Occupancy  Eigenvalues  Occupancy
  0   219      1.51102    0.71435      1.51102    0.71435
  0   220      1.53416    0.66489      1.53416    0.66489
  0   221      1.54525    0.63977      1.54525    0.63977
  0   222      1.57770    0.56213      1.57770    0.56213

  1   219      1.35558    0.92209      1.35558    0.92209
  1   220      1.39917    0.88444      1.39917    0.88444
  1   221      1.41424    0.86812      1.41424    0.86812
  1   222      1.45072    0.82049      1.45072    0.82049

Fermi level: 1.60268

No gap

Forces in eV/Ang:
  0 Pt    0.00823    0.00475   -0.03207
  1 Pt    0.00000    0.00289   -0.10030
  2 Pt   -0.00823    0.00475   -0.03207
  3 Pt    0.00250   -0.00144   -0.10030
  4 Pt   -0.00250   -0.00144   -0.10030
  5 Pt   -0.00000    0.04501   -0.21327
  6 Pt    0.00000   -0.00950   -0.03207
  7 Pt    0.03898   -0.02250   -0.21327
  8 Pt   -0.03898   -0.02250   -0.21327
  9 Pt   -0.00000    0.00857    0.02495
 10 Pt    0.01854    0.01070   -0.00899
 11 Pt   -0.01854    0.01070   -0.00899
 12 Pt    0.00595   -0.00344   -0.04537
 13 Pt   -0.00000   -0.02141   -0.00899
 14 Pt   -0.00595   -0.00344   -0.04537
 15 Pt   -0.00742   -0.00429    0.02495
 16 Pt    0.00742   -0.00429    0.02495
 17 Pt   -0.00000    0.00687   -0.04537
 18 Pt    0.00000    0.00000    0.98196
 19 Pt    0.41026   -0.00243   -0.00637
 20 Pt   -0.41026   -0.00243   -0.00637
 21 Pt    0.20302    0.35651   -0.00637
 22 Pt    0.00000    0.00000    0.09601
 23 Pt   -0.20302    0.35651   -0.00637
 24 Pt   -0.20723   -0.35408   -0.00637
 25 Pt    0.20723   -0.35408   -0.00637
 26 Pt    0.00000    0.00000    0.09513
 27 O    -0.00000    0.00000    0.03996
 28 C    -0.00000   -0.00000    0.03388