User:   nicog@vera13-3
Date:   Fri Feb 24 13:26:06 2023
Arch:   x86_64
Pid:    2953712
CWD:    /cephyr/users/nicog/Vera/Computational_Materials_2023/A4
Python: 3.10.4
gpaw:   /apps/Arch/software/GPAW/22.8.0-foss-2022a/lib/python3.10/site-packages/gpaw
_gpaw:  /apps/Arch/software/GPAW/22.8.0-foss-2022a/lib/python3.10/site-packages/
        _gpaw.cpython-310-x86_64-linux-gnu.so
ase:    /apps/Arch/software/ASE/3.22.1-foss-2022a/lib/python3.10/site-packages/ase (version 3.22.1)
numpy:  /apps/Arch/software/SciPy-bundle/2022.05-foss-2022a/lib/python3.10/site-packages/numpy (version 1.22.3)
scipy:  /apps/Arch/software/SciPy-bundle/2022.05-foss-2022a/lib/python3.10/site-packages/scipy (version 1.8.1)
units:  Angstrom and eV
cores: 16
OpenMP: False
OMP_NUM_THREADS: 1

Input parameters:
  kpts: [4 4 1]
  mode: {ecut: 450.00000000000006,
         name: pw}
  spinpol: True
  xc: PBE

System changes: positions, numbers, cell, pbc, initial_charges, initial_magmoms

Initialize ...

species:
  Au:
    name: Gold
    id: b12133f335f6ca0d89c4b1ccaa844e9a
    Z: 79.0
    valence: 11
    core: 68
    charge: 0.0
    file: /apps/Common/software/GPAW-setups/0.9.20000/Au.PBE.gz
    compensation charges: {type: gauss,
                           rc: 0.42,
                           lmax: 2}
    cutoffs: {filter: 2.33,
              core: 2.81}
    valence states:
      #              energy  rcut
      - 6s(1.00)    -5.728   1.323
      - 6p(0.00)    -0.775   1.323
      - 5d(10.00)    -6.891   1.323
      -  s          21.484   1.323
      -  p          26.436   1.323
      -  d          20.321   1.323

    # Using partial waves for Au as LCAO basis

  O:
    name: Oxygen
    id: 32ecd46bf208036f09c70b0ec9a88b78
    Z: 8.0
    valence: 6
    core: 2
    charge: 0.0
    file: /apps/Common/software/GPAW-setups/0.9.20000/O.PBE.gz
    compensation charges: {type: gauss,
                           rc: 0.21,
                           lmax: 2}
    cutoffs: {filter: 1.17,
              core: 0.83}
    valence states:
      #              energy  rcut
      - 2s(2.00)   -23.961   0.688
      - 2p(4.00)    -9.029   0.598
      -  s           3.251   0.688
      -  p          18.182   0.598
      -  d           0.000   0.619

    # Using partial waves for O as LCAO basis

Reference energy: -13950194.172252  # eV

Spin-polarized calculation.
Magnetic moment: 0.000000

Convergence criteria:
 Maximum [total energy] change in last 3 cyles: 0.0005 eV / electron
 Maximum integral of absolute [dens]ity change: 0.0001 electrons / valence electron
 Maximum integral of absolute [eigenst]ate change: 4e-08 eV^2 / valence electron
 Maximum number of scf [iter]ations: 333
 (Square brackets indicate name in SCF output, whereas a 'c' in
 the SCF output indicates the quantity has converged.)

Symmetries present (total): 2

  ( 1  0  0)  ( 0  1  0)
  ( 0  1  0)  ( 1  0  0)
  ( 0  0  1)  ( 0  0  1)

16 k-points: 4 x 4 x 1 Monkhorst-Pack grid
6 k-points in the irreducible part of the Brillouin zone
       k-points in crystal coordinates                weights
   0:     0.12500000   -0.12500000    0.00000000          2/16
   1:     0.12500000    0.12500000    0.00000000          2/16
   2:     0.37500000   -0.37500000    0.00000000          2/16
   3:     0.37500000   -0.12500000    0.00000000          4/16
   4:     0.37500000    0.12500000    0.00000000          4/16
   5:     0.37500000    0.37500000    0.00000000          2/16

Wave functions: Plane wave expansion
  Cutoff energy: 450.000 eV
  Number of coefficients (min, max): 24789, 24831
  Pulay-stress correction: 0.000000 eV/Ang^3 (de/decut=0.000000)
  Using FFTW library
  ScaLapack parameters: grid=1x1, blocksize=None
  Wavefunction extrapolation:
    Improved wavefunction reuse through dual PAW basis

Occupation numbers: Fermi-Dirac:
  width: 0.1000  # eV

Eigensolver
   Davidson(niter=2)

Densities:
  Coarse grid: 45*45*84 grid
  Fine grid: 90*90*168 grid
  Total Charge: 0.000000

Density mixing:
  Method: difference
  Backend: pulay
  Linear mixing parameter: 0.05
  old densities: 5
  Damping of long wavelength oscillations: 50

Hamiltonian:
  XC and Coulomb potentials evaluated on a 90*90*168 grid
  Using the PBE Exchange-Correlation functional
  External potential:
    NoExternalPotential

XC parameters: PBE with 2 nearest neighbor stencil

Total number of cores used: 16
Parallelization over k-points: 2
Domain decomposition: 2 x 2 x 2

Number of atoms: 28
Number of atomic orbitals: 247
Number of bands in calculation: 186
Number of valence electrons: 303
Bands to converge: occupied

... initialized

Initializing position-dependent things.

Density initialized from atomic densities
Creating initial wave functions:
  186 bands from LCAO basis set

                  Au     Au     Au

           OAu     AAu    AAu    Au

       Au     Au     AAu    Au
        Au     Au     AAu    Au     Au

[...]

Positions:
   0 Au     1.477146    0.852831    6.000000    ( 0.0000,  0.0000,  0.0000)
   1 Au     4.431438    0.852831    6.000000    ( 0.0000,  0.0000,  0.0000)
   2 Au     7.385730    0.852831    6.000000    ( 0.0000,  0.0000,  0.0000)
   3 Au     2.954292    3.411323    6.000000    ( 0.0000,  0.0000,  0.0000)
   4 Au     5.908584    3.411323    6.000000    ( 0.0000,  0.0000,  0.0000)
   5 Au     8.862876    3.411323    6.000000    ( 0.0000,  0.0000,  0.0000)
   6 Au     4.431438    5.969815    6.000000    ( 0.0000,  0.0000,  0.0000)
   7 Au     7.385730    5.969815    6.000000    ( 0.0000,  0.0000,  0.0000)
   8 Au    10.340022    5.969815    6.000000    ( 0.0000,  0.0000,  0.0000)
   9 Au     0.000000    1.705661    8.412169    ( 0.0000,  0.0000,  0.0000)
  10 Au     2.954292    1.705661    8.412169    ( 0.0000,  0.0000,  0.0000)
  11 Au     5.908584    1.705661    8.412169    ( 0.0000,  0.0000,  0.0000)
  12 Au     1.477146    4.264153    8.412169    ( 0.0000,  0.0000,  0.0000)
  13 Au     4.431438    4.264153    8.412169    ( 0.0000,  0.0000,  0.0000)
  14 Au     7.385730    4.264153    8.412169    ( 0.0000,  0.0000,  0.0000)
  15 Au     2.954292    6.822645    8.412169    ( 0.0000,  0.0000,  0.0000)
  16 Au     5.908584    6.822645    8.412169    ( 0.0000,  0.0000,  0.0000)
  17 Au     8.862876    6.822645    8.412169    ( 0.0000,  0.0000,  0.0000)
  18 Au     0.000000    0.000000   10.824339    ( 0.0000,  0.0000,  0.0000)
  19 Au     2.954292    0.000000   10.824339    ( 0.0000,  0.0000,  0.0000)
  20 Au     5.908584    0.000000   10.824339    ( 0.0000,  0.0000,  0.0000)
  21 Au     1.477146    2.558492   10.824339    ( 0.0000,  0.0000,  0.0000)
  22 Au     4.431438    2.558492   10.824339    ( 0.0000,  0.0000,  0.0000)
  23 Au     7.385730    2.558492   10.824339    ( 0.0000,  0.0000,  0.0000)
  24 Au     2.954292    5.116984   10.824339    ( 0.0000,  0.0000,  0.0000)
  25 Au     5.908584    5.116984   10.824339    ( 0.0000,  0.0000,  0.0000)
  26 Au     8.862876    5.116984   10.824339    ( 0.0000,  0.0000,  0.0000)
  27 O      1.477146    0.852831   12.024339    ( 0.0000,  0.0000,  0.0000)

Unit cell:
           periodic     x           y           z      points  spacing
  1. axis:    yes    8.862876    0.000000    0.000000    45     0.1706
  2. axis:    yes    4.431438    7.675476    0.000000    45     0.1706
  3. axis:    yes    0.000000    0.000000   16.824339    84     0.2003

  Lengths:   8.862876   8.862876  16.824339
  Angles:   90.000000  90.000000  60.000000

Effective grid spacing dv^(1/3) = 0.1888

     iter     time        total  log10-change:  magmom
                         energy  eigst   dens
iter:   1 13:26:35   -91.635387                  +0.0000
iter:   2 13:26:45   -89.330814  -1.77  -1.33    +0.0000
iter:   3 13:26:56   -84.466229  -1.72  -1.36    +0.0000
iter:   4 13:27:06   -85.010542  -2.25  -1.56    +0.0000
iter:   5 13:27:17   -82.920963  -1.75  -1.56    +0.0000
iter:   6 13:27:28   -82.972853  -2.49  -1.95    +0.0000
iter:   7 13:27:38   -82.871166c -2.44  -2.14    +0.0000
iter:   8 13:27:49   -82.862065c -3.39  -2.35    +0.0000
iter:   9 13:27:59   -82.798255c -3.40  -2.51    +0.0000
iter:  10 13:28:10   -82.781636c -3.85  -2.69    +0.0000
iter:  11 13:28:20   -82.774363c -3.99  -2.93    -0.0000
iter:  12 13:28:31   -82.773848c -5.05  -3.12    -0.0000
iter:  13 13:28:42   -82.773184c -4.98  -3.19    -0.0000
iter:  14 13:28:52   -82.772883c -4.55  -3.34    -0.0000
iter:  15 13:29:03   -82.772762c -5.42  -3.63    -0.0000
iter:  16 13:29:13   -82.772403c -5.55  -3.66    -0.0000
iter:  17 13:29:24   -82.772363c -6.32  -3.77    -0.0000
iter:  18 13:29:34   -82.772290c -6.08  -3.87    -0.0000
iter:  19 13:29:45   -82.772290c -7.10  -4.00    -0.0000
iter:  20 13:29:56   -82.772327c -6.65  -4.03c   -0.0000
iter:  21 13:30:06   -82.772321c -6.58  -4.23c   -0.0000
iter:  22 13:30:17   -82.772331c -7.24  -4.34c   -0.0000
iter:  23 13:30:27   -82.772324c -7.09  -4.59c   -0.0000
iter:  24 13:30:38   -82.772306c -7.41c -4.58c   -0.0000

Converged after 24 iterations.

Dipole moment: (-1.222980, -0.706088, -0.179275) |e|*Ang

Total magnetic moment: (0.000000, 0.000000, -0.000000)
Local magnetic moments:
   0 Au ( 0.000000,  0.000000, -0.000000)
   1 Au ( 0.000000,  0.000000,  0.000000)
   2 Au ( 0.000000,  0.000000, -0.000000)
   3 Au ( 0.000000,  0.000000,  0.000000)
   4 Au ( 0.000000,  0.000000, -0.000000)
   5 Au ( 0.000000,  0.000000,  0.000000)
   6 Au ( 0.000000,  0.000000, -0.000000)
   7 Au ( 0.000000,  0.000000,  0.000000)
   8 Au ( 0.000000,  0.000000,  0.000000)
   9 Au ( 0.000000,  0.000000, -0.000000)
  10 Au ( 0.000000,  0.000000,  0.000000)
  11 Au ( 0.000000,  0.000000, -0.000000)
  12 Au ( 0.000000,  0.000000,  0.000000)
  13 Au ( 0.000000,  0.000000, -0.000000)
  14 Au ( 0.000000,  0.000000, -0.000000)
  15 Au ( 0.000000,  0.000000, -0.000000)
  16 Au ( 0.000000,  0.000000, -0.000000)
  17 Au ( 0.000000,  0.000000,  0.000000)
  18 Au ( 0.000000,  0.000000, -0.000000)
  19 Au ( 0.000000,  0.000000, -0.000000)
  20 Au ( 0.000000,  0.000000, -0.000000)
  21 Au ( 0.000000,  0.000000, -0.000000)
  22 Au ( 0.000000,  0.000000,  0.000000)
  23 Au ( 0.000000,  0.000000, -0.000000)
  24 Au ( 0.000000,  0.000000, -0.000000)
  25 Au ( 0.000000,  0.000000, -0.000000)
  26 Au ( 0.000000,  0.000000,  0.000000)
  27 O  ( 0.000000,  0.000000, -0.000000)

Energy contributions relative to reference atoms: (reference = -13950194.172252)

Kinetic:       -290.878781
Potential:     +234.725885
External:        +0.000000
XC:             -29.575110
Entropy (-ST):   -0.260309
Local:           +3.085854
Free energy:    -82.902461
Extrapolated:   -82.772306

Spin contamination: 0.000000 electrons
Showing only first 2 kpts
                      Up                     Down
 Kpt  Band  Eigenvalues  Occupancy  Eigenvalues  Occupancy
  0   149     -0.14977    0.99991     -0.14977    0.99991
  0   150      0.13467    0.99850      0.13467    0.99850
  0   151      0.34066    0.98834      0.34066    0.98834
  0   152      0.42493    0.97333      0.42493    0.97333

  1   149     -0.46123    1.00000     -0.46123    1.00000
  1   150     -0.26701    0.99997     -0.26701    0.99997
  1   151      0.22069    0.99646      0.22069    0.99646
  1   152      0.23037    0.99610      0.23037    0.99610

Fermi level: 0.78464

No gap

Forces in eV/Ang:
  0 Au    0.00419    0.00242   -0.08271
  1 Au   -0.02699    0.00456   -0.05890
  2 Au    0.01660   -0.02821   -0.05833
  3 Au   -0.00954   -0.02565   -0.05890
  4 Au   -0.00681   -0.00393   -0.00068
  5 Au    0.00815   -0.00655   -0.06272
  6 Au   -0.01613    0.02848   -0.05833
  7 Au   -0.00160    0.01034   -0.06272
  8 Au    0.01256    0.00725    0.10288
  9 Au   -0.04330    0.03657   -0.05603
 10 Au    0.04903    0.02831   -0.07157
 11 Au   -0.00798   -0.01384    0.01821
 12 Au    0.00605   -0.24359    0.20060
 13 Au   -0.01598    0.00001    0.01821
 14 Au    0.01929    0.01114    0.02919
 15 Au    0.20029    0.11564    0.20774
 16 Au    0.01002   -0.05579   -0.05603
 17 Au   -0.20793    0.12704    0.20060
 18 Au   -1.66210   -0.95962   -0.45340
 19 Au    1.63200   -0.95158   -0.43892
 20 Au    0.01540   -0.00837   -0.05883
 21 Au   -0.00809    1.88914   -0.43892
 22 Au    0.26406    0.15246   -0.06281
 23 Au   -0.25526    0.15263   -0.05795
 24 Au    0.00045    0.01752   -0.05883
 25 Au    0.00455   -0.29738   -0.05795
 26 Au    0.00109    0.00063   -0.05714
 27 O     0.01808    0.01044    1.49354

System changes: positions

[...]

Density initialized from wave functions

                  Au     Au     Au
           O
            Au     AAu    AAu    Au
       Au     Au     AAu    Au

        Au     Au     AAu    Au     Au

[...]

System changes: positions

Initializing position-dependent things.

Density initialized from wave functions

[...]

           OAu     AAu    AAu    Au

       Au     Au     AAu    Au
        Au     Au     AAu    Au     Au

[...]

           Au      Au     Au

Positions:
   0 Au     1.477146    0.852831    6.000000    ( 0.0000,  0.0000,  0.0000)
   1 Au     4.431438    0.852831    6.000000    ( 0.0000,  0.0000,  0.0000)
   2 Au     7.385730    0.852831    6.000000    ( 0.0000,  0.0000,  0.0000)
   3 Au     2.954292    3.411323    6.000000    ( 0.0000,  0.0000,  0.0000)
   4 Au     5.908584    3.411323    6.000000    ( 0.0000,  0.0000,  0.0000)
   5 Au     8.862876    3.411323    6.000000    ( 0.0000,  0.0000,  0.0000)
   6 Au     4.431438    5.969815    6.000000    ( 0.0000,  0.0000,  0.0000)
   7 Au     7.385730    5.969815    6.000000    ( 0.0000,  0.0000,  0.0000)
   8 Au    10.340022    5.969815    6.000000    ( 0.0000,  0.0000,  0.0000)
   9 Au     0.000000    1.705661    8.412169    ( 0.0000,  0.0000,  0.0000)
  10 Au     2.954292    1.705661    8.412169    ( 0.0000,  0.0000,  0.0000)
  11 Au     5.908584    1.705661    8.412169    ( 0.0000,  0.0000,  0.0000)
  12 Au     1.477146    4.264153    8.412169    ( 0.0000,  0.0000,  0.0000)
  13 Au     4.431438    4.264153    8.412169    ( 0.0000,  0.0000,  0.0000)
  14 Au     7.385730    4.264153    8.412169    ( 0.0000,  0.0000,  0.0000)
  15 Au     2.954292    6.822645    8.412169    ( 0.0000,  0.0000,  0.0000)
  16 Au     5.908584    6.822645    8.412169    ( 0.0000,  0.0000,  0.0000)
  17 Au     8.862876    6.822645    8.412169    ( 0.0000,  0.0000,  0.0000)
  18 Au     0.000000    0.000000   10.824339    ( 0.0000,  0.0000,  0.0000)
  19 Au     2.954292    0.000000   10.824339    ( 0.0000,  0.0000,  0.0000)
  20 Au     5.908584    0.000000   10.824339    ( 0.0000,  0.0000,  0.0000)
  21 Au     1.477146    2.558492   10.824339    ( 0.0000,  0.0000,  0.0000)
  22 Au     4.431438    2.558492   10.824339    ( 0.0000,  0.0000,  0.0000)
  23 Au     7.385730    2.558492   10.824339    ( 0.0000,  0.0000,  0.0000)
  24 Au     2.954292    5.116984   10.824339    ( 0.0000,  0.0000,  0.0000)
  25 Au     5.908584    5.116984   10.824339    ( 0.0000,  0.0000,  0.0000)
  26 Au     8.862876    5.116984   10.824339    ( 0.0000,  0.0000,  0.0000)
  27 O      1.484703    0.857194   12.174992    ( 0.0000,  0.0000,  0.0000)

Unit cell:
           periodic     x           y           z      points  spacing
  1. axis:    yes    8.862876    0.000000    0.000000    45     0.1706
  2. axis:    yes    4.431438    7.675476    0.000000    45     0.1706
  3. axis:    yes    0.000000    0.000000   16.824339    84     0.2003

  Lengths:   8.862876   8.862876  16.824339
  Angles:   90.000000  90.000000  60.000000

Effective grid spacing dv^(1/3) = 0.1888

     iter     time        total  log10-change:  magmom
                         energy  eigst   dens
iter:   1 13:34:19   -86.003801  -1.96           +0.0000
iter:   2 13:34:29   -83.038586  -2.14  -1.79    +0.0000
iter:   3 13:34:40   -82.961938  -3.35  -2.36    +0.0000
iter:   4 13:34:50   -82.911934c -3.23  -2.56    -0.0000
iter:   5 13:35:01   -82.893510c -3.21  -2.79    -0.0000
iter:   6 13:35:11   -82.880103c -4.08  -2.95    -0.0000
iter:   7 13:35:22   -82.879190c -5.16  -3.11    -0.0000
iter:   8 13:35:33   -82.876115c -4.05  -3.16    -0.0000
iter:   9 13:35:43   -82.875987c -5.12  -3.45    -0.0000
iter:  10 13:35:54   -82.875608c -5.58  -3.53    -0.0000
iter:  11 13:36:04   -82.875520c -5.23  -3.66    -0.0000
iter:  12 13:36:15   -82.875493c -6.08  -3.86    -0.0000
iter:  13 13:36:26   -82.875449c -6.05  -3.93    -0.0000
iter:  14 13:36:36   -82.875469c -6.70  -4.14c   -0.0000
iter:  15 13:36:47   -82.875457c -7.55c -4.18c   -0.0000

Converged after 15 iterations.

Dipole moment: (-1.113597, -0.642936, -0.266685) |e|*Ang

Total magnetic moment: (0.000000, 0.000000, -0.000000)
Local magnetic moments:
   0 Au ( 0.000000,  0.000000, -0.000000)
   1 Au ( 0.000000,  0.000000, -0.000000)
   2 Au ( 0.000000,  0.000000,  0.000000)
   3 Au ( 0.000000,  0.000000, -0.000000)
   4 Au ( 0.000000,  0.000000, -0.000000)
   5 Au ( 0.000000,  0.000000,  0.000000)
   6 Au ( 0.000000,  0.000000,  0.000000)
   7 Au ( 0.000000,  0.000000,  0.000000)
   8 Au ( 0.000000,  0.000000, -0.000000)
   9 Au ( 0.000000,  0.000000, -0.000000)
  10 Au ( 0.000000,  0.000000, -0.000000)
  11 Au ( 0.000000,  0.000000,  0.000000)
  12 Au ( 0.000000,  0.000000,  0.000000)
  13 Au ( 0.000000,  0.000000,  0.000000)
  14 Au ( 0.000000,  0.000000,  0.000000)
  15 Au ( 0.000000,  0.000000,  0.000000)
  16 Au ( 0.000000,  0.000000, -0.000000)
  17 Au ( 0.000000,  0.000000,  0.000000)
  18 Au ( 0.000000,  0.000000, -0.000000)
  19 Au ( 0.000000,  0.000000, -0.000000)
  20 Au ( 0.000000,  0.000000,  0.000000)
  21 Au ( 0.000000,  0.000000, -0.000000)
  22 Au ( 0.000000,  0.000000, -0.000000)
  23 Au ( 0.000000,  0.000000,  0.000000)
  24 Au ( 0.000000,  0.000000,  0.000000)
  25 Au ( 0.000000,  0.000000,  0.000000)
  26 Au ( 0.000000,  0.000000,  0.000000)
  27 O  ( 0.000000,  0.000000, -0.000000)

Energy contributions relative to reference atoms: (reference = -13950194.172252)

Kinetic:       -299.558874
Potential:     +242.114636
External:        +0.000000
XC:             -28.376140
Entropy (-ST):   -0.262108
Local:           +3.075975
Free energy:    -83.006511
Extrapolated:   -82.875457

Spin contamination: 0.000000 electrons
Showing only first 2 kpts
                      Up                     Down
 Kpt  Band  Eigenvalues  Occupancy  Eigenvalues  Occupancy
  0   149     -0.18022    0.99991     -0.18022    0.99991
  0   150      0.09581    0.99860      0.09581    0.99860
  0   151      0.28013    0.99125      0.28013    0.99125
  0   152      0.38427    0.97560      0.38427    0.97560

  1   149     -0.50268    1.00000     -0.50268    1.00000
  1   150     -0.29515    0.99997     -0.29515    0.99997
  1   151      0.16284    0.99728      0.16284    0.99728
  1   152      0.16996    0.99707      0.16996    0.99707

Fermi level: 0.75310

No gap

Forces in eV/Ang:
  0 Au    0.00203    0.00117   -0.08814
  1 Au   -0.02750    0.00967   -0.05761
  2 Au    0.01930   -0.02366   -0.05766
  3 Au   -0.00538   -0.02865   -0.05761
  4 Au   -0.00772   -0.00445    0.00508
  5 Au    0.00517   -0.00994   -0.06035
  6 Au   -0.01084    0.02854   -0.05766
  7 Au   -0.00602    0.00945   -0.06035
  8 Au    0.01185    0.00684    0.11581
  9 Au   -0.03053    0.02776   -0.02697
 10 Au    0.03666    0.02116   -0.04568
 11 Au   -0.00719   -0.00940    0.02109
 12 Au    0.00520   -0.23379    0.19556
 13 Au   -0.01174   -0.00152    0.02109
 14 Au    0.01453    0.00839    0.03168
 15 Au    0.19160    0.11062    0.19924
 16 Au    0.00878   -0.04032   -0.02697
 17 Au   -0.19987    0.12140    0.19556
 18 Au   -0.89306   -0.51561    0.04567
 19 Au    0.89749   -0.52841    0.03759
 20 Au    0.01748    0.00053   -0.04800
 21 Au   -0.00887    1.04145    0.03759
 22 Au    0.24554    0.14176   -0.05388
 23 Au   -0.23432    0.13684   -0.04897
 24 Au    0.00920    0.01487   -0.04800
 25 Au    0.00135   -0.27135   -0.04897
 26 Au   -0.00492   -0.00284   -0.04704
 27 O    -0.01844   -0.01065   -0.08520