User:   nicog@vera13-3
Date:   Fri Feb 24 15:29:16 2023
Arch:   x86_64
Pid:    2953712
CWD:    /cephyr/users/nicog/Vera/Computational_Materials_2023/A4
Python: 3.10.4
gpaw:   /apps/Arch/software/GPAW/22.8.0-foss-2022a/lib/python3.10/site-packages/gpaw
_gpaw:  /apps/Arch/software/GPAW/22.8.0-foss-2022a/lib/python3.10/site-packages/
        _gpaw.cpython-310-x86_64-linux-gnu.so
ase:    /apps/Arch/software/ASE/3.22.1-foss-2022a/lib/python3.10/site-packages/ase (version 3.22.1)
numpy:  /apps/Arch/software/SciPy-bundle/2022.05-foss-2022a/lib/python3.10/site-packages/numpy (version 1.22.3)
scipy:  /apps/Arch/software/SciPy-bundle/2022.05-foss-2022a/lib/python3.10/site-packages/scipy (version 1.8.1)
units:  Angstrom and eV
cores: 16
OpenMP: False
OMP_NUM_THREADS: 1

Input parameters:
  kpts: [4 4 1]
  mode: {ecut: 450.00000000000006,
         name: pw}
  spinpol: True
  xc: PBE

System changes: positions, numbers, cell, pbc, initial_charges, initial_magmoms

Initialize ...

species:
  Rh:
    name: Rhodium
    id: 4e1d209aee696a641de1ffa1459b299f
    Z: 45.0
    valence: 15
    core: 30
    charge: 0.0
    file: /apps/Common/software/GPAW-setups/0.9.20000/Rh.PBE.gz
    compensation charges: {type: gauss,
                           rc: 0.38,
                           lmax: 2}
    cutoffs: {filter: 2.48,
              core: 2.35}
    valence states:
      #              energy  rcut
      - 5s(1.00)    -4.297   1.270
      - 4p(6.00)   -50.429   1.381
      - 5p(0.00)    -0.852   1.381
      - 4d(8.00)    -5.942   1.244
      -  s          22.915   1.270
      -  d          21.270   1.244

    # Using partial waves for Rh as LCAO basis

  O:
    name: Oxygen
    id: 32ecd46bf208036f09c70b0ec9a88b78
    Z: 8.0
    valence: 6
    core: 2
    charge: 0.0
    file: /apps/Common/software/GPAW-setups/0.9.20000/O.PBE.gz
    compensation charges: {type: gauss,
                           rc: 0.21,
                           lmax: 2}
    cutoffs: {filter: 1.17,
              core: 0.83}
    valence states:
      #              energy  rcut
      - 2s(2.00)   -23.961   0.688
      - 2p(4.00)    -9.029   0.598
      -  s           3.251   0.688
      -  p          18.182   0.598
      -  d           0.000   0.619

[...]

  C:
    name: Carbon
    id: 4aa54d4b901d75f77cc0ea3eec22967b
    Z: 6.0
    valence: 4
    core: 2
    charge: 0.0
    file: /apps/Common/software/GPAW-setups/0.9.20000/C.PBE.gz
    compensation charges: {type: gauss,
                           rc: 0.20,
                           lmax: 2}
    cutoffs: {filter: 1.14,
              core: 1.14}
    valence states:
      #              energy  rcut
      - 2s(2.00)   -13.751   0.635
      - 2p(2.00)    -5.284   0.635
      -  s          13.461   0.635
      -  p          21.927   0.635
      -  d           0.000   0.635

    # Using partial waves for C as LCAO basis

Reference energy: -3516703.949422  # eV

Spin-polarized calculation.
Magnetic moment: 0.000000

Convergence criteria:
 Maximum [total energy] change in last 3 cyles: 0.0005 eV / electron
 Maximum integral of absolute [dens]ity change: 0.0001 electrons / valence electron
 Maximum integral of absolute [eigenst]ate change: 4e-08 eV^2 / valence electron
 Maximum number of scf [iter]ations: 333
 (Square brackets indicate name in SCF output, whereas a 'c' in
 the SCF output indicates the quantity has converged.)

Symmetries present (total): 6

  ( 1  0  0)  ( 1 -1  0)  ( 0  1  0)  ( 0 -1  0)  (-1  1  0)  (-1  0  0)
  ( 0  1  0)  ( 0 -1  0)  ( 1  0  0)  ( 1 -1  0)  (-1  0  0)  (-1  1  0)
  ( 0  0  1)  ( 0  0  1)  ( 0  0  1)  ( 0  0  1)  ( 0  0  1)  ( 0  0  1)
Note: your k-points are not as symmetric as your crystal!

16 k-points: 4 x 4 x 1 Monkhorst-Pack grid
6 k-points in the irreducible part of the Brillouin zone
       k-points in crystal coordinates                weights
   0:     0.12500000   -0.12500000    0.00000000          2/16
   1:     0.12500000    0.12500000    0.00000000          2/16
   2:     0.37500000   -0.37500000    0.00000000          2/16
   3:     0.37500000   -0.12500000    0.00000000          4/16
   4:     0.37500000    0.12500000    0.00000000          4/16
   5:     0.37500000    0.37500000    0.00000000          2/16

Wave functions: Plane wave expansion
  Cutoff energy: 450.000 eV
  Number of coefficients (min, max): 20422, 20468
  Pulay-stress correction: 0.000000 eV/Ang^3 (de/decut=0.000000)
  Using FFTW library
  ScaLapack parameters: grid=1x1, blocksize=None
  Wavefunction extrapolation:
    Improved wavefunction reuse through dual PAW basis

Occupation numbers: Fermi-Dirac:
  width: 0.1000  # eV

Eigensolver
   Davidson(niter=2)

Densities:
  Coarse grid: 40*40*81 grid
  Fine grid: 80*80*162 grid
  Total Charge: 0.000000

Density mixing:
  Method: difference
  Backend: pulay
  Linear mixing parameter: 0.05
  old densities: 5
  Damping of long wavelength oscillations: 50

Hamiltonian:
  XC and Coulomb potentials evaluated on a 80*80*162 grid
  Using the PBE Exchange-Correlation functional
  External potential:
    NoExternalPotential

XC parameters: PBE with 2 nearest neighbor stencil

Total number of cores used: 16
Parallelization over k-points: 2
Domain decomposition: 1 x 2 x 4

Number of atoms: 29
Number of atomic orbitals: 332
Number of bands in calculation: 253
Number of valence electrons: 415
Bands to converge: occupied

... initialized

Initializing position-dependent things.

Density initialized from atomic densities
Creating initial wave functions:
  253 bands from LCAO basis set

       O
                Rh     Rh     Rh
       C
            Rh   RRh    RRh    Rh
       Rh    RRh   RRh    Rh

        Rh     Rh   RRh    Rh    Rh

                Rh    Rh     Rh
           Rh    Rh     Rh

Positions:
   0 Rh     1.356584    0.783224    6.000000    ( 0.0000,  0.0000,  0.0000)
   1 Rh     4.069753    0.783224    6.000000    ( 0.0000,  0.0000,  0.0000)
   2 Rh     6.782922    0.783224    6.000000    ( 0.0000,  0.0000,  0.0000)
   3 Rh     2.713169    3.132897    6.000000    ( 0.0000,  0.0000,  0.0000)
   4 Rh     5.426337    3.132897    6.000000    ( 0.0000,  0.0000,  0.0000)
   5 Rh     8.139506    3.132897    6.000000    ( 0.0000,  0.0000,  0.0000)
   6 Rh     4.069753    5.482570    6.000000    ( 0.0000,  0.0000,  0.0000)
   7 Rh     6.782922    5.482570    6.000000    ( 0.0000,  0.0000,  0.0000)
   8 Rh     9.496091    5.482570    6.000000    ( 0.0000,  0.0000,  0.0000)
   9 Rh    -0.000000    1.566449    8.215293    ( 0.0000,  0.0000,  0.0000)
  10 Rh     2.713169    1.566449    8.215293    ( 0.0000,  0.0000,  0.0000)
  11 Rh     5.426337    1.566449    8.215293    ( 0.0000,  0.0000,  0.0000)
  12 Rh     1.356584    3.916122    8.215293    ( 0.0000,  0.0000,  0.0000)
  13 Rh     4.069753    3.916122    8.215293    ( 0.0000,  0.0000,  0.0000)
  14 Rh     6.782922    3.916122    8.215293    ( 0.0000,  0.0000,  0.0000)
  15 Rh     2.713169    6.265795    8.215293    ( 0.0000,  0.0000,  0.0000)
  16 Rh     5.426337    6.265795    8.215293    ( 0.0000,  0.0000,  0.0000)
  17 Rh     8.139506    6.265795    8.215293    ( 0.0000,  0.0000,  0.0000)
  18 Rh     0.000000    0.000000   10.430586    ( 0.0000,  0.0000,  0.0000)
  19 Rh     2.713169    0.000000   10.430586    ( 0.0000,  0.0000,  0.0000)
  20 Rh     5.426337    0.000000   10.430586    ( 0.0000,  0.0000,  0.0000)
  21 Rh     1.356584    2.349673   10.430586    ( 0.0000,  0.0000,  0.0000)
  22 Rh     4.069753    2.349673   10.430586    ( 0.0000,  0.0000,  0.0000)
  23 Rh     6.782922    2.349673   10.430586    ( 0.0000,  0.0000,  0.0000)
  24 Rh     2.713169    4.699346   10.430586    ( 0.0000,  0.0000,  0.0000)
  25 Rh     5.426337    4.699346   10.430586    ( 0.0000,  0.0000,  0.0000)
  26 Rh     8.139506    4.699346   10.430586    ( 0.0000,  0.0000,  0.0000)
  27 O      0.000000    0.000000   13.580586    ( 0.0000,  0.0000,  0.0000)
  28 C      0.000000    0.000000   12.430246    ( 0.0000,  0.0000,  0.0000)

Unit cell:
           periodic     x           y           z      points  spacing
  1. axis:    yes    8.139506    0.000000    0.000000    40     0.1762
  2. axis:    yes    4.069753    7.049019    0.000000    40     0.1762
  3. axis:    yes    0.000000    0.000000   16.430586    81     0.2028

  Lengths:   8.139506   8.139506  16.430586
  Angles:   90.000000  90.000000  60.000000

Effective grid spacing dv^(1/3) = 0.1938

     iter     time        total  log10-change:  magmom
                         energy  eigst   dens
iter:   1 15:30:09  -212.421509                  +0.0000
iter:   2 15:30:22  -209.977408  -1.31  -1.35    +0.0000
iter:   3 15:30:36  -211.237231  -1.57  -1.37    +0.0000
iter:   4 15:30:49  -200.335991  -1.06  -1.36    +0.0000
iter:   5 15:31:02  -199.014212  -2.21  -1.77    +0.0000
iter:   6 15:31:15  -198.853824  -2.68  -1.98    +0.0000
iter:   7 15:31:28  -198.782417  -2.49  -2.05    +0.0000
iter:   8 15:31:42  -198.728660c -3.23  -2.20    +0.0000
iter:   9 15:31:55  -198.712661c -3.32  -2.27    +0.0000
iter:  10 15:32:08  -198.651465c -3.39  -2.36    +0.0000
iter:  11 15:32:21  -198.608876c -3.38  -2.50    +0.0000
iter:  12 15:32:35  -198.594685c -3.68  -2.79    +0.0000
iter:  13 15:32:48  -198.594102c -4.43  -3.02    +0.0000
iter:  14 15:33:01  -198.593644c -4.81  -3.06    +0.0000
iter:  15 15:33:14  -198.594113c -4.46  -3.11    +0.0000
iter:  16 15:33:27  -198.595074c -5.00  -3.25    +0.0000
iter:  17 15:33:40  -198.593568c -5.36  -3.20    +0.0000
iter:  18 15:33:54  -198.593392c -5.56  -3.39    +0.0000
iter:  19 15:34:07  -198.593517c -5.53  -3.51    +0.0000
iter:  20 15:34:20  -198.593593c -5.66  -3.63    +0.0000
iter:  21 15:34:33  -198.593697c -5.93  -3.74    +0.0000
iter:  22 15:34:46  -198.593806c -6.16  -3.84    +0.0000
iter:  23 15:34:59  -198.593750c -6.45  -3.81    +0.0000
iter:  24 15:35:13  -198.593740c -6.35  -3.95    +0.0000
iter:  25 15:35:26  -198.593729c -6.85  -4.11c   +0.0000
iter:  26 15:35:39  -198.593707c -6.97  -4.17c   +0.0000
iter:  27 15:35:52  -198.593671c -7.02  -4.28c   +0.0000
iter:  28 15:36:05  -198.593674c -7.57c -4.38c   +0.0000

Converged after 28 iterations.

Dipole moment: (-0.237072, -0.136874, -0.026209) |e|*Ang

Total magnetic moment: (0.000000, 0.000000, 0.000000)
Local magnetic moments:
   0 Rh ( 0.000000,  0.000000,  0.000000)
   1 Rh ( 0.000000,  0.000000, -0.000000)
   2 Rh ( 0.000000,  0.000000,  0.000000)
   3 Rh ( 0.000000,  0.000000, -0.000000)
   4 Rh ( 0.000000,  0.000000, -0.000000)
   5 Rh ( 0.000000,  0.000000,  0.000000)
   6 Rh ( 0.000000,  0.000000,  0.000000)
   7 Rh ( 0.000000,  0.000000,  0.000000)
   8 Rh ( 0.000000,  0.000000,  0.000000)
   9 Rh ( 0.000000,  0.000000, -0.000000)
  10 Rh ( 0.000000,  0.000000, -0.000000)
  11 Rh ( 0.000000,  0.000000, -0.000000)
  12 Rh ( 0.000000,  0.000000,  0.000000)
  13 Rh ( 0.000000,  0.000000, -0.000000)
  14 Rh ( 0.000000,  0.000000,  0.000000)
  15 Rh ( 0.000000,  0.000000, -0.000000)
  16 Rh ( 0.000000,  0.000000, -0.000000)
  17 Rh ( 0.000000,  0.000000,  0.000000)
  18 Rh ( 0.000000,  0.000000,  0.000000)
  19 Rh ( 0.000000,  0.000000, -0.000000)
  20 Rh ( 0.000000,  0.000000, -0.000000)
  21 Rh ( 0.000000,  0.000000, -0.000000)
[...]
Showing only first 2 kpts
                      Up                     Down
 Kpt  Band  Eigenvalues  Occupancy  Eigenvalues  Occupancy
  0   205      1.77759    0.56449      1.77759    0.56449
  0   206      1.81219    0.47837      1.81219    0.47837
  0   207      1.82582    0.44451      1.82582    0.44451
  0   208      1.82764    0.44002      1.82764    0.44002

  1   205      1.71386    0.71026      1.71386    0.71026
  1   206      1.72506    0.68669      1.72506    0.68669
  1   207      1.77832    0.56270      1.77832    0.56270
  1   208      1.80433    0.49799      1.80433    0.49799

Fermi level: 1.80353

No gap

Forces in eV/Ang:
  0 Rh   -0.01496   -0.00864    0.47217
  1 Rh    0.00000   -0.03772    0.42625
  2 Rh    0.01496   -0.00864    0.47217
  3 Rh   -0.03267    0.01886    0.42625
  4 Rh    0.03267    0.01886    0.42625
  5 Rh   -0.00000    0.12828    0.30763
  6 Rh    0.00000    0.01728    0.47217
  7 Rh    0.11109   -0.06414    0.30763
  8 Rh   -0.11109   -0.06414    0.30763
  9 Rh    0.00000   -0.08478   -0.15279
 10 Rh    0.00291    0.00168    0.00745
 11 Rh   -0.00291    0.00168    0.00745
 12 Rh    0.02535   -0.01464    0.05326
 13 Rh    0.00000   -0.00336    0.00745
 14 Rh   -0.02535   -0.01464    0.05326
 15 Rh    0.07342    0.04239   -0.15279
 16 Rh   -0.07342    0.04239   -0.15279
 17 Rh    0.00000    0.02927    0.05326
 18 Rh    0.00000    0.00000    2.36951
 19 Rh    0.28825   -0.00998   -0.50690
 20 Rh   -0.28825   -0.00998   -0.50690
 21 Rh    0.13548    0.25463   -0.50690
 22 Rh   -0.00000    0.00000   -0.43448
 23 Rh   -0.13548    0.25463   -0.50690
 24 Rh   -0.15277   -0.24464   -0.50690
 25 Rh    0.15277   -0.24464   -0.50690
 26 Rh    0.00000    0.00000   -0.39356
 27 O    -0.00000   -0.00000    0.52433
 28 C     0.00000   -0.00000   -2.36302

System changes: positions

[...]

Density initialized from wave functions

[...]

     iter     time        total  log10-change:  magmom
                         energy  eigst   dens
iter:   1 15:36:25  -230.554079  +0.09           -0.0000
iter:   2 15:36:38  -248.563695  -0.97  -1.41    +0.0000
iter:   3 15:36:52  -216.855450  -1.13  -1.19    -0.0000
iter:   4 15:37:05  -201.121941  -1.49  -1.43    -0.0000
iter:   5 15:37:18  -195.962674  -2.03  -1.65    -0.0000
iter:   6 15:37:31  -195.630852  -2.67  -2.05    -0.0000
iter:   7 15:37:45  -195.120686  -2.02  -2.05    -0.0000
iter:   8 15:37:58  -194.676927  -3.14  -2.13    -0.0000
iter:   9 15:38:11  -194.600930  -3.09  -2.49    -0.0000
iter:  10 15:38:24  -194.539697c -3.27  -2.35    -0.0000
iter:  11 15:38:37  -194.611793c -3.27  -2.35    -0.0000
iter:  12 15:38:51  -194.342597  -3.62  -2.26    -0.0000
iter:  13 15:39:04  -194.334864  -4.01  -2.88    -0.0000
iter:  14 15:39:17  -194.333351c -4.60  -3.02    -0.0000
iter:  15 15:39:30  -194.333447c -4.77  -3.11    -0.0000
iter:  16 15:39:44  -194.334486c -4.95  -3.21    -0.0000
iter:  17 15:39:57  -194.337618c -4.86  -3.34    -0.0000
iter:  18 15:40:10  -194.334773c -5.00  -3.13    -0.0000
iter:  19 15:40:23  -194.334082c -5.43  -3.39    -0.0000
iter:  20 15:40:36  -194.333964c -5.86  -3.62    -0.0000
iter:  21 15:40:50  -194.333863c -5.68  -3.75    -0.0000
iter:  22 15:41:03  -194.333870c -6.18  -4.05c   -0.0000
iter:  23 15:41:16  -194.333900c -6.29  -4.08c   -0.0000
iter:  24 15:41:29  -194.333912c -6.77  -4.06c   -0.0000
iter:  25 15:41:42  -194.333911c -6.97  -4.04c   -0.0000
iter:  26 15:41:56  -194.333910c -6.70  -4.14c   -0.0000
iter:  27 15:42:09  -194.333922c -6.76  -4.28c   -0.0000
iter:  28 15:42:22  -194.333930c -7.28  -4.34c   -0.0000
iter:  29 15:42:35  -194.333926c -7.40  -4.32c   -0.0000
iter:  30 15:42:48  -194.333937c -7.68c -4.35c   -0.0000

[...]

     iter     time        total  log10-change:  magmom
                         energy  eigst   dens
iter:   1 15:43:08  -206.756214  -1.14           +0.0000
iter:   2 15:43:21  -203.912723  -1.75  -1.77    +0.0000
iter:   3 15:43:35  -222.560796  -1.54  -1.74    +0.0000
iter:   4 15:43:48  -200.339325  -2.02  -1.36    +0.0000
iter:   5 15:44:01  -199.931149  -2.99  -2.09    +0.0000
iter:   6 15:44:14  -199.374794  -2.81  -2.24    +0.0000
iter:   7 15:44:27  -198.912267  -2.37  -2.33    +0.0000
iter:   8 15:44:41  -198.774254  -3.16  -2.32    +0.0000
iter:   9 15:44:54  -198.685965  -3.28  -2.48    +0.0000
iter:  10 15:45:07  -198.682811c -3.59  -2.76    +0.0000
iter:  11 15:45:20  -198.653357c -3.82  -2.65    +0.0000
iter:  12 15:45:34  -198.645473c -4.34  -2.85    -0.0000
iter:  13 15:45:47  -198.640102c -4.26  -2.97    -0.0000
iter:  14 15:46:00  -198.639159c -4.70  -3.23    -0.0000
iter:  15 15:46:13  -198.638774c -5.22  -3.32    -0.0000
iter:  16 15:46:26  -198.638675c -5.10  -3.35    -0.0000
iter:  17 15:46:40  -198.639506c -5.25  -3.47    -0.0000
iter:  18 15:46:53  -198.638698c -5.62  -3.37    -0.0000
iter:  19 15:47:06  -198.638527c -5.94  -3.62    -0.0000
iter:  20 15:47:19  -198.638487c -6.19  -3.79    -0.0000
iter:  21 15:47:32  -198.638477c -5.89  -3.88    -0.0000
iter:  22 15:47:46  -198.638533c -6.35  -4.00c   -0.0000
iter:  23 15:47:59  -198.638485c -6.93  -3.99    -0.0000
iter:  24 15:48:12  -198.638479c -6.94  -4.06c   -0.0000
iter:  25 15:48:25  -198.638448c -6.70  -4.11c   -0.0000
iter:  26 15:48:38  -198.638440c -6.97  -4.29c   -0.0000
iter:  27 15:48:52  -198.638448c -7.32  -4.35c   -0.0000
iter:  28 15:49:05  -198.638468c -7.21  -4.36c   -0.0000
iter:  29 15:49:18  -198.638515c -6.93  -4.30c   -0.0000
iter:  30 15:49:31  -198.638475c -7.35  -4.18c   -0.0000
iter:  31 15:49:44  -198.638473c -7.76c -4.59c   -0.0000

[...]

       O
       C        Rh     Rh     Rh
            Rh    Rh     Rh
                 Rh     Rh     Rh
       Rh    RRh   RRh    Rh

        Rh     Rh   RRh    Rh    Rh
                Rh    Rh     Rh

[...]

       O
                Rh     Rh     Rh
       C    Rh    Rh     Rh
                 Rh     Rh     Rh
       Rh    RRh   RRh    Rh

        Rh     Rh   RRh    Rh    Rh
                Rh    Rh     Rh

[...]

       O
                Rh     Rh     Rh
       C    Rh    Rh     Rh
                 Rh     Rh     Rh
       Rh    RRh   RRh    Rh

[...]

     iter     time        total  log10-change:  magmom
                         energy  eigst   dens
iter:   1 16:03:06  -200.683086  -1.02           +0.0000
iter:   2 16:03:19  -200.639824  -2.28  -2.11    -0.0000
iter:   3 16:03:32  -200.774919c -2.56  -1.95    -0.0000
iter:   4 16:03:45  -198.912313  -2.35  -1.91    -0.0000
iter:   5 16:03:59  -198.692517  -2.77  -2.35    -0.0000
iter:   6 16:04:12  -198.564260  -3.33  -2.39    -0.0000
iter:   7 16:04:25  -198.499815c -3.22  -2.58    -0.0000
iter:   8 16:04:38  -198.476238c -3.39  -2.74    -0.0000
iter:   9 16:04:52  -198.542303c -3.51  -2.71    -0.0000
iter:  10 16:05:05  -198.440849c -3.92  -2.48    +0.0000
iter:  11 16:05:18  -198.436553c -4.58  -2.98    +0.0000
iter:  12 16:05:31  -198.434158c -4.44  -3.14    +0.0000
iter:  13 16:05:45  -198.433704c -4.64  -3.37    +0.0000
iter:  14 16:05:58  -198.433404c -5.18  -3.42    +0.0000
iter:  15 16:06:11  -198.434469c -4.92  -3.49    +0.0000
iter:  16 16:06:24  -198.436855c -5.19  -3.43    +0.0000
iter:  17 16:06:38  -198.433696c -5.34  -3.21    +0.0000
iter:  18 16:06:51  -198.433711c -5.99  -3.88    +0.0000
iter:  19 16:07:04  -198.433718c -6.38  -3.98    +0.0000
iter:  20 16:07:18  -198.433737c -6.38  -4.07c   +0.0000
iter:  21 16:07:31  -198.433733c -6.71  -4.17c   +0.0000
iter:  22 16:07:44  -198.433785c -6.69  -4.31c   +0.0000
iter:  23 16:07:57  -198.433746c -6.99  -4.05c   +0.0000
iter:  24 16:08:11  -198.433732c -6.90  -4.21c   +0.0000
iter:  25 16:08:24  -198.433735c -7.23  -4.46c   +0.0000
iter:  26 16:08:37  -198.433741c -7.46c -4.49c   +0.0000

[...]

       O

                Rh     Rh     Rh
       C
            Rh   RRh    RRh    Rh
       Rh    RRh   RRh    Rh

[...]

     iter     time        total  log10-change:  magmom
                         energy  eigst   dens
iter:   1 16:20:51  -205.070911  -0.75           +0.0000
iter:   2 16:21:04  -208.547159  -1.88  -1.83    -0.0000
iter:   3 16:21:17  -202.397667  -2.17  -1.56    -0.0000
iter:   4 16:21:30  -200.019684  -2.11  -1.85    +0.0000
iter:   5 16:21:44  -199.712166  -3.01  -2.15    +0.0000
iter:   6 16:21:57  -199.088151  -2.70  -2.15    +0.0000
iter:   7 16:22:10  -198.897201  -2.75  -2.37    +0.0000
iter:   8 16:22:24  -198.817328  -3.17  -2.55    +0.0000
iter:   9 16:22:37  -198.810688c -3.33  -2.72    +0.0000
iter:  10 16:22:50  -198.768824c -3.97  -2.60    +0.0000
iter:  11 16:23:03  -198.765146c -4.46  -2.89    +0.0000
iter:  12 16:23:16  -198.760437c -4.26  -2.96    +0.0000
iter:  13 16:23:30  -198.760307c -4.36  -3.17    +0.0000
iter:  14 16:23:43  -198.760027c -5.01  -3.25    +0.0000
iter:  15 16:23:56  -198.759972c -5.31  -3.30    +0.0000
iter:  16 16:24:09  -198.761627c -4.96  -3.39    +0.0000
iter:  17 16:24:23  -198.760431c -5.27  -3.30    +0.0000
iter:  18 16:24:36  -198.760145c -5.44  -3.48    +0.0000
iter:  19 16:24:49  -198.760104c -6.13  -3.66    +0.0000
iter:  20 16:25:02  -198.759964c -5.94  -3.71    +0.0000
iter:  21 16:25:15  -198.759914c -5.94  -3.89    +0.0000
iter:  22 16:25:29  -198.759897c -6.59  -4.04c   +0.0000
iter:  23 16:25:42  -198.759938c -6.82  -4.09c   +0.0000
iter:  24 16:25:55  -198.759894c -6.93  -3.96    +0.0000
iter:  25 16:26:08  -198.759896c -6.88  -4.25c   +0.0000
iter:  26 16:26:22  -198.759904c -6.93  -4.40c   +0.0000
iter:  27 16:26:35  -198.759913c -7.23  -4.48c   +0.0000
iter:  28 16:26:48  -198.759915c -7.66c -4.40c   +0.0000

[...]

System changes: positions

Initializing position-dependent things.

Density initialized from wave functions

       O
                Rh     Rh     Rh
       C
            Rh   RRh    RRh    Rh
       Rh    RRh   RRh    Rh

        Rh     Rh   RRh    Rh    Rh

                Rh    Rh     Rh
           Rh    Rh     Rh

Positions:
   0 Rh     1.356584    0.783224    6.000000    ( 0.0000,  0.0000,  0.0000)
   1 Rh     4.069753    0.783224    6.000000    ( 0.0000,  0.0000,  0.0000)
   2 Rh     6.782922    0.783224    6.000000    ( 0.0000,  0.0000,  0.0000)
   3 Rh     2.713169    3.132897    6.000000    ( 0.0000,  0.0000,  0.0000)
   4 Rh     5.426337    3.132897    6.000000    ( 0.0000,  0.0000,  0.0000)
   5 Rh     8.139506    3.132897    6.000000    ( 0.0000,  0.0000,  0.0000)
   6 Rh     4.069753    5.482570    6.000000    ( 0.0000,  0.0000,  0.0000)
   7 Rh     6.782922    5.482570    6.000000    ( 0.0000,  0.0000,  0.0000)
   8 Rh     9.496091    5.482570    6.000000    ( 0.0000,  0.0000,  0.0000)
   9 Rh    -0.000000    1.566449    8.215293    ( 0.0000,  0.0000,  0.0000)
  10 Rh     2.713169    1.566449    8.215293    ( 0.0000,  0.0000,  0.0000)
  11 Rh     5.426337    1.566449    8.215293    ( 0.0000,  0.0000,  0.0000)
  12 Rh     1.356584    3.916122    8.215293    ( 0.0000,  0.0000,  0.0000)
  13 Rh     4.069753    3.916122    8.215293    ( 0.0000,  0.0000,  0.0000)
  14 Rh     6.782922    3.916122    8.215293    ( 0.0000,  0.0000,  0.0000)
  15 Rh     2.713169    6.265795    8.215293    ( 0.0000,  0.0000,  0.0000)
  16 Rh     5.426337    6.265795    8.215293    ( 0.0000,  0.0000,  0.0000)
  17 Rh     8.139506    6.265795    8.215293    ( 0.0000,  0.0000,  0.0000)
  18 Rh     0.000000    0.000000   10.430586    ( 0.0000,  0.0000,  0.0000)
  19 Rh     2.713169    0.000000   10.430586    ( 0.0000,  0.0000,  0.0000)
  20 Rh     5.426337    0.000000   10.430586    ( 0.0000,  0.0000,  0.0000)
  21 Rh     1.356584    2.349673   10.430586    ( 0.0000,  0.0000,  0.0000)
  22 Rh     4.069753    2.349673   10.430586    ( 0.0000,  0.0000,  0.0000)
  23 Rh     6.782922    2.349673   10.430586    ( 0.0000,  0.0000,  0.0000)
  24 Rh     2.713169    4.699346   10.430586    ( 0.0000,  0.0000,  0.0000)
  25 Rh     5.426337    4.699346   10.430586    ( 0.0000,  0.0000,  0.0000)
  26 Rh     8.139506    4.699346   10.430586    ( 0.0000,  0.0000,  0.0000)
  27 O     -0.000000   -0.000000   13.432015    ( 0.0000,  0.0000,  0.0000)
  28 C     -0.000000   -0.000000   12.270860    ( 0.0000,  0.0000,  0.0000)

Unit cell:
           periodic     x           y           z      points  spacing
  1. axis:    yes    8.139506    0.000000    0.000000    40     0.1762
  2. axis:    yes    4.069753    7.049019    0.000000    40     0.1762
  3. axis:    yes    0.000000    0.000000   16.430586    81     0.2028

  Lengths:   8.139506   8.139506  16.430586
  Angles:   90.000000  90.000000  60.000000

Effective grid spacing dv^(1/3) = 0.1938

     iter     time        total  log10-change:  magmom
                         energy  eigst   dens
iter:   1 16:27:08  -198.765383  -4.28           +0.0000
iter:   2 16:27:21  -198.793312  -4.46  -3.20    +0.0000
iter:   3 16:27:34  -198.760495c -4.89  -2.78    +0.0000
iter:   4 16:27:47  -198.760342c -6.01  -3.94    +0.0000
iter:   5 16:28:01  -198.760309c -6.41  -4.11c   +0.0000
iter:   6 16:28:14  -198.760286c -6.73  -4.28c   +0.0000
iter:   7 16:28:27  -198.760281c -6.68  -4.51c   +0.0000
iter:   8 16:28:40  -198.760278c -7.38  -4.55c   +0.0000
iter:   9 16:28:54  -198.760280c -7.32  -4.45c   -0.0000
iter:  10 16:29:07  -198.760256c -7.23  -4.29c   -0.0000
iter:  11 16:29:20  -198.760253c -8.08c -4.87c   -0.0000

Converged after 11 iterations.

Dipole moment: (-0.242524, -0.140021, -0.136768) |e|*Ang

Total magnetic moment: (0.000000, 0.000000, -0.000000)
Local magnetic moments:
   0 Rh ( 0.000000,  0.000000,  0.000000)
   1 Rh ( 0.000000,  0.000000,  0.000000)
   2 Rh ( 0.000000,  0.000000,  0.000000)
   3 Rh ( 0.000000,  0.000000,  0.000000)
   4 Rh ( 0.000000,  0.000000,  0.000000)
   5 Rh ( 0.000000,  0.000000,  0.000000)
   6 Rh ( 0.000000,  0.000000,  0.000000)
   7 Rh ( 0.000000,  0.000000,  0.000000)
   8 Rh ( 0.000000,  0.000000,  0.000000)
   9 Rh ( 0.000000,  0.000000, -0.000000)
  10 Rh ( 0.000000,  0.000000, -0.000000)
  11 Rh ( 0.000000,  0.000000, -0.000000)
  12 Rh ( 0.000000,  0.000000, -0.000000)
  13 Rh ( 0.000000,  0.000000, -0.000000)
  14 Rh ( 0.000000,  0.000000, -0.000000)
  15 Rh ( 0.000000,  0.000000, -0.000000)
  16 Rh ( 0.000000,  0.000000, -0.000000)
  17 Rh ( 0.000000,  0.000000, -0.000000)
  18 Rh ( 0.000000,  0.000000,  0.000000)
  19 Rh ( 0.000000,  0.000000, -0.000000)
  20 Rh ( 0.000000,  0.000000, -0.000000)
  21 Rh ( 0.000000,  0.000000, -0.000000)
  22 Rh ( 0.000000,  0.000000, -0.000000)
  23 Rh ( 0.000000,  0.000000, -0.000000)
  24 Rh ( 0.000000,  0.000000, -0.000000)
  25 Rh ( 0.000000,  0.000000, -0.000000)
  26 Rh ( 0.000000,  0.000000, -0.000000)
  27 O  ( 0.000000,  0.000000,  0.000000)
  28 C  ( 0.000000,  0.000000, -0.000000)

Energy contributions relative to reference atoms: (reference = -3516703.949422)

Kinetic:       -166.396514
Potential:      +84.332961
External:        +0.000000
XC:            -113.719224
Entropy (-ST):   -1.680332
Local:           -2.137311
Free energy:   -199.600419
Extrapolated:  -198.760253

Spin contamination: 0.000000 electrons
Showing only first 2 kpts
                      Up                     Down
 Kpt  Band  Eigenvalues  Occupancy  Eigenvalues  Occupancy
  0   205      1.73118    0.55929      1.73118    0.55929
  0   206      1.76469    0.47584      1.76469    0.47584
  0   207      1.77908    0.44013      1.77908    0.44013
  0   208      1.78302    0.43045      1.78302    0.43045

  1   205      1.67224    0.69588      1.67224    0.69588
  1   206      1.67828    0.68294      1.67828    0.68294
  1   207      1.72828    0.56645      1.72828    0.56645
  1   208      1.75372    0.50324      1.75372    0.50324

Fermi level: 1.75501

No gap

Forces in eV/Ang:
  0 Rh   -0.01686   -0.00973    0.47301
  1 Rh    0.00000   -0.03913    0.42473
  2 Rh    0.01686   -0.00973    0.47301
  3 Rh   -0.03389    0.01957    0.42473
  4 Rh    0.03389    0.01957    0.42473
  5 Rh    0.00000    0.15717    0.28864
  6 Rh   -0.00000    0.01946    0.47301
  7 Rh    0.13611   -0.07858    0.28864
  8 Rh   -0.13611   -0.07858    0.28864
  9 Rh   -0.00000   -0.06048   -0.25595
 10 Rh   -0.00542   -0.00313    0.00141
 11 Rh    0.00542   -0.00313    0.00141
 12 Rh    0.02470   -0.01426    0.05203
 13 Rh    0.00000    0.00626    0.00141
 14 Rh   -0.02470   -0.01426    0.05203
 15 Rh    0.05237    0.03024   -0.25595
 16 Rh   -0.05237    0.03024   -0.25595
 17 Rh   -0.00000    0.02852    0.05203
 18 Rh    0.00000   -0.00000    0.81493
 19 Rh    0.31194   -0.01120   -0.50531
 20 Rh   -0.31194   -0.01120   -0.50531
 21 Rh    0.14627    0.27575   -0.50531
 22 Rh    0.00000    0.00000   -0.43200
 23 Rh   -0.14627    0.27575   -0.50531
 24 Rh   -0.16567   -0.26455   -0.50531
 25 Rh    0.16567   -0.26455   -0.50531
 26 Rh    0.00000    0.00000   -0.38754
 27 O     0.00000   -0.00000    0.04046
 28 C    -0.00000   -0.00000   -0.05640