User:   nicog@vera13-3
Date:   Fri Feb 24 13:36:50 2023
Arch:   x86_64
Pid:    2953712
CWD:    /cephyr/users/nicog/Vera/Computational_Materials_2023/A4
Python: 3.10.4
gpaw:   /apps/Arch/software/GPAW/22.8.0-foss-2022a/lib/python3.10/site-packages/gpaw
_gpaw:  /apps/Arch/software/GPAW/22.8.0-foss-2022a/lib/python3.10/site-packages/
        _gpaw.cpython-310-x86_64-linux-gnu.so
ase:    /apps/Arch/software/ASE/3.22.1-foss-2022a/lib/python3.10/site-packages/ase (version 3.22.1)
numpy:  /apps/Arch/software/SciPy-bundle/2022.05-foss-2022a/lib/python3.10/site-packages/numpy (version 1.22.3)
scipy:  /apps/Arch/software/SciPy-bundle/2022.05-foss-2022a/lib/python3.10/site-packages/scipy (version 1.8.1)
units:  Angstrom and eV
cores: 16
OpenMP: False
OMP_NUM_THREADS: 1

Input parameters:
  kpts: [4 4 1]
  mode: {ecut: 450.00000000000006,
         name: pw}
  spinpol: True
  xc: PBE

System changes: positions, numbers, cell, pbc, initial_charges, initial_magmoms

Initialize ...

species:
  Pt:
    name: Platinum
    id: 5ed695806aff0c961dba1a84acd7f4b2
    Z: 78.0
    valence: 16
    core: 62
    charge: 0.0
    file: /apps/Common/software/GPAW-setups/0.9.20000/Pt.PBE.gz
    compensation charges: {type: gauss,
                           rc: 0.41,
                           lmax: 2}
    cutoffs: {filter: 2.26,
              core: 2.26}
    valence states:
      #              energy  rcut
      - 6s(1.00)    -5.628   1.307
      - 5p(6.00)   -56.051   1.371
      - 6p(0.00)    -0.845   1.371
      - 5d(9.00)    -6.153   1.307
      -  s          21.583   1.307
      -  d          21.058   1.307

    # Using partial waves for Pt as LCAO basis

  O:
    name: Oxygen
    id: 32ecd46bf208036f09c70b0ec9a88b78
    Z: 8.0
    valence: 6
    core: 2
    charge: 0.0
    file: /apps/Common/software/GPAW-setups/0.9.20000/O.PBE.gz
    compensation charges: {type: gauss,
                           rc: 0.21,
                           lmax: 2}
    cutoffs: {filter: 1.17,
              core: 0.83}
    valence states:
      #              energy  rcut
      - 2s(2.00)   -23.961   0.688
      - 2p(4.00)    -9.029   0.598
      -  s           3.251   0.688
      -  p          18.182   0.598
      -  d           0.000   0.619

    # Using partial waves for O as LCAO basis

Reference energy: -13512175.647022  # eV

Spin-polarized calculation.
Magnetic moment: 0.000000

Convergence criteria:
 Maximum [total energy] change in last 3 cyles: 0.0005 eV / electron
 Maximum integral of absolute [dens]ity change: 0.0001 electrons / valence electron
 Maximum integral of absolute [eigenst]ate change: 4e-08 eV^2 / valence electron
 Maximum number of scf [iter]ations: 333
 (Square brackets indicate name in SCF output, whereas a 'c' in
 the SCF output indicates the quantity has converged.)

Symmetries present (total): 2

  ( 1  0  0)  ( 0  1  0)
  ( 0  1  0)  ( 1  0  0)
  ( 0  0  1)  ( 0  0  1)

16 k-points: 4 x 4 x 1 Monkhorst-Pack grid
6 k-points in the irreducible part of the Brillouin zone
       k-points in crystal coordinates                weights
   0:     0.12500000   -0.12500000    0.00000000          2/16
   1:     0.12500000    0.12500000    0.00000000          2/16
   2:     0.37500000   -0.37500000    0.00000000          2/16
   3:     0.37500000   -0.12500000    0.00000000          4/16
   4:     0.37500000    0.12500000    0.00000000          4/16
   5:     0.37500000    0.37500000    0.00000000          2/16

Wave functions: Plane wave expansion
  Cutoff energy: 450.000 eV
  Number of coefficients (min, max): 22030, 22077
  Pulay-stress correction: 0.000000 eV/Ang^3 (de/decut=0.000000)
  Using FFTW library
  ScaLapack parameters: grid=1x1, blocksize=None
  Wavefunction extrapolation:
    Improved wavefunction reuse through dual PAW basis

Occupation numbers: Fermi-Dirac:
  width: 0.1000  # eV

Eigensolver
   Davidson(niter=2)

Densities:
  Coarse grid: 42*42*84 grid
  Fine grid: 84*84*168 grid
  Total Charge: 0.000000

Density mixing:
  Method: difference
  Backend: pulay
  Linear mixing parameter: 0.05
  old densities: 5
  Damping of long wavelength oscillations: 50

Hamiltonian:
  XC and Coulomb potentials evaluated on a 84*84*168 grid
  Using the PBE Exchange-Correlation functional
  External potential:
    NoExternalPotential

XC parameters: PBE with 2 nearest neighbor stencil

Total number of cores used: 16
Parallelization over k-points: 2
Domain decomposition: 2 x 2 x 2

Number of atoms: 28
Number of atomic orbitals: 328
Number of bands in calculation: 267
Number of valence electrons: 438
Bands to converge: occupied

... initialized

Initializing position-dependent things.

Density initialized from atomic densities
Creating initial wave functions:
  267 bands from LCAO basis set

                 Pt     Pt     Pt
           OPt     Pt     Pt
                  Pt     Pt    Pt
       Pt    PPt    PPt    Pt

        Pt     Pt    PPt    Pt    Pt

                Pt     Pt     Pt
           Pt     Pt     Pt

Positions:
   0 Pt     1.402546    0.809760    6.000000    ( 0.0000,  0.0000,  0.0000)
   1 Pt     4.207639    0.809760    6.000000    ( 0.0000,  0.0000,  0.0000)
   2 Pt     7.012732    0.809760    6.000000    ( 0.0000,  0.0000,  0.0000)
   3 Pt     2.805093    3.239042    6.000000    ( 0.0000,  0.0000,  0.0000)
   4 Pt     5.610185    3.239042    6.000000    ( 0.0000,  0.0000,  0.0000)
   5 Pt     8.415278    3.239042    6.000000    ( 0.0000,  0.0000,  0.0000)
   6 Pt     4.207639    5.668323    6.000000    ( 0.0000,  0.0000,  0.0000)
   7 Pt     7.012732    5.668323    6.000000    ( 0.0000,  0.0000,  0.0000)
   8 Pt     9.817824    5.668323    6.000000    ( 0.0000,  0.0000,  0.0000)
   9 Pt    -0.000000    1.619521    8.290349    ( 0.0000,  0.0000,  0.0000)
  10 Pt     2.805093    1.619521    8.290349    ( 0.0000,  0.0000,  0.0000)
  11 Pt     5.610185    1.619521    8.290349    ( 0.0000,  0.0000,  0.0000)
  12 Pt     1.402546    4.048802    8.290349    ( 0.0000,  0.0000,  0.0000)
  13 Pt     4.207639    4.048802    8.290349    ( 0.0000,  0.0000,  0.0000)
  14 Pt     7.012732    4.048802    8.290349    ( 0.0000,  0.0000,  0.0000)
  15 Pt     2.805093    6.478084    8.290349    ( 0.0000,  0.0000,  0.0000)
  16 Pt     5.610185    6.478084    8.290349    ( 0.0000,  0.0000,  0.0000)
  17 Pt     8.415278    6.478084    8.290349    ( 0.0000,  0.0000,  0.0000)
  18 Pt     0.000000    0.000000   10.580697    ( 0.0000,  0.0000,  0.0000)
  19 Pt     2.805093    0.000000   10.580697    ( 0.0000,  0.0000,  0.0000)
  20 Pt     5.610185    0.000000   10.580697    ( 0.0000,  0.0000,  0.0000)
  21 Pt     1.402546    2.429281   10.580697    ( 0.0000,  0.0000,  0.0000)
  22 Pt     4.207639    2.429281   10.580697    ( 0.0000,  0.0000,  0.0000)
  23 Pt     7.012732    2.429281   10.580697    ( 0.0000,  0.0000,  0.0000)
  24 Pt     2.805093    4.858563   10.580697    ( 0.0000,  0.0000,  0.0000)
  25 Pt     5.610185    4.858563   10.580697    ( 0.0000,  0.0000,  0.0000)
  26 Pt     8.415278    4.858563   10.580697    ( 0.0000,  0.0000,  0.0000)
  27 O      1.402546    0.809760   11.780697    ( 0.0000,  0.0000,  0.0000)

Unit cell:
           periodic     x           y           z      points  spacing
  1. axis:    yes    8.415278    0.000000    0.000000    42     0.1735
  2. axis:    yes    4.207639    7.287844    0.000000    42     0.1735
  3. axis:    yes    0.000000    0.000000   16.580697    84     0.1974

  Lengths:   8.415278   8.415278  16.580697
  Angles:   90.000000  90.000000  60.000000

Effective grid spacing dv^(1/3) = 0.1900

     iter     time        total  log10-change:  magmom
                         energy  eigst   dens
iter:   1 13:37:36  -179.506078                  +0.0000
iter:   2 13:37:51  -176.723627  -1.21  -1.40    +0.0000
iter:   3 13:38:06  -173.576636  -1.69  -1.45    +0.0000
iter:   4 13:38:22  -170.601662  -1.85  -1.52    +0.0000
iter:   5 13:38:37  -168.029487  -2.05  -1.64    -0.0000
iter:   6 13:38:53  -167.441816  -2.54  -1.85    -0.0000
iter:   7 13:39:08  -167.360239  -2.39  -2.01    -0.0000
iter:   8 13:39:23  -167.341024c -3.52  -2.23    -0.0000
iter:   9 13:39:39  -167.264793c -2.76  -2.28    -0.0000
iter:  10 13:39:54  -167.278524c -3.58  -2.57    -0.0000
iter:  11 13:40:10  -167.261233c -3.96  -2.68    -0.0000
iter:  12 13:40:25  -167.253577c -4.26  -2.77    -0.0000
iter:  13 13:40:40  -167.247588c -3.85  -2.89    -0.0000
iter:  14 13:40:56  -167.247467c -4.76  -3.25    -0.0000
iter:  15 13:41:11  -167.247582c -5.05  -3.31    -0.0000
iter:  16 13:41:26  -167.249567c -5.04  -3.42    -0.0000
iter:  17 13:41:42  -167.249875c -5.63  -3.44    -0.0000
iter:  18 13:41:57  -167.249739c -6.15  -3.44    -0.0000
iter:  19 13:42:13  -167.250029c -5.90  -3.49    -0.0000
iter:  20 13:42:28  -167.250293c -5.41  -3.54    -0.0000
iter:  21 13:42:43  -167.250165c -5.84  -3.93    -0.0000
iter:  22 13:42:59  -167.250096c -6.23  -4.26c   -0.0000
iter:  23 13:43:14  -167.249996c -6.60  -4.33c   -0.0000
iter:  24 13:43:29  -167.249959c -7.08  -4.65c   -0.0000
iter:  25 13:43:45  -167.249922c -7.47c -4.73c   -0.0000

Converged after 25 iterations.

Dipole moment: (-1.886798, -1.089343, -0.030007) |e|*Ang

Total magnetic moment: (0.000000, 0.000000, -0.000000)
Local magnetic moments:
   0 Pt ( 0.000000,  0.000000,  0.000000)
   1 Pt ( 0.000000,  0.000000,  0.000000)
   2 Pt ( 0.000000,  0.000000, -0.000000)
   3 Pt ( 0.000000,  0.000000,  0.000000)
   4 Pt ( 0.000000,  0.000000,  0.000000)
   5 Pt ( 0.000000,  0.000000,  0.000000)
   6 Pt ( 0.000000,  0.000000, -0.000000)
   7 Pt ( 0.000000,  0.000000,  0.000000)
   8 Pt ( 0.000000,  0.000000, -0.000000)
   9 Pt ( 0.000000,  0.000000, -0.000000)
  10 Pt ( 0.000000,  0.000000, -0.000000)
  11 Pt ( 0.000000,  0.000000, -0.000000)
  12 Pt ( 0.000000,  0.000000, -0.000000)
  13 Pt ( 0.000000,  0.000000, -0.000000)
  14 Pt ( 0.000000,  0.000000, -0.000000)
  15 Pt ( 0.000000,  0.000000, -0.000000)
  16 Pt ( 0.000000,  0.000000, -0.000000)
  17 Pt ( 0.000000,  0.000000, -0.000000)
  18 Pt ( 0.000000,  0.000000, -0.000000)
  19 Pt ( 0.000000,  0.000000,  0.000000)
  20 Pt ( 0.000000,  0.000000, -0.000000)
  21 Pt ( 0.000000,  0.000000,  0.000000)
  22 Pt ( 0.000000,  0.000000, -0.000000)
  23 Pt ( 0.000000,  0.000000,  0.000000)
  24 Pt ( 0.000000,  0.000000, -0.000000)
  25 Pt ( 0.000000,  0.000000,  0.000000)
  26 Pt ( 0.000000,  0.000000,  0.000000)
  27 O  ( 0.000000,  0.000000,  0.000000)

Energy contributions relative to reference atoms: (reference = -13512175.647022)

Kinetic:       -287.921738
Potential:     +219.173148
External:        +0.000000
XC:             -82.915546
Entropy (-ST):   -1.694585
Local:          -14.738493
Free energy:   -168.097214
Extrapolated:  -167.249922

Spin contamination: 0.000000 electrons
Showing only first 2 kpts
                      Up                     Down
 Kpt  Band  Eigenvalues  Occupancy  Eigenvalues  Occupancy
  0   217      1.31978    0.75967      1.31978    0.75967
  0   218      1.36370    0.67078      1.36370    0.67078
  0   219      1.38746    0.61635      1.38746    0.61635
  0   220      1.39956    0.58737      1.39956    0.58737

  1   217      1.21710    0.89823      1.21710    0.89823
  1   218      1.22294    0.89276      1.22294    0.89276
  1   219      1.25849    0.85369      1.25849    0.85369
  1   220      1.25858    0.85357      1.25858    0.85357

Fermi level: 1.43487

No gap

Forces in eV/Ang:
  0 Pt   -0.00553   -0.00319   -0.04759
  1 Pt    0.02775    0.00960   -0.08697
  2 Pt   -0.02872    0.00856   -0.09558
  3 Pt    0.02219    0.01923   -0.08697
  4 Pt    0.00096    0.00055   -0.11153
  5 Pt   -0.02527    0.02781   -0.09646
  6 Pt   -0.00695   -0.02915   -0.09558
  7 Pt    0.01145   -0.03579   -0.09646
  8 Pt   -0.00610   -0.00352   -0.40757
  9 Pt   -0.04561    0.02125   -0.33297
 10 Pt    0.04923    0.02842   -0.33796
 11 Pt    0.00171    0.02628    0.01139
 12 Pt    0.00020   -0.10391    0.43112
 13 Pt    0.02361   -0.01166    0.01139
 14 Pt   -0.02493   -0.01439    0.01560
 15 Pt    0.09779    0.05646    0.42252
 16 Pt   -0.00440   -0.05012   -0.33297
 17 Pt   -0.08989    0.05213    0.43112
 18 Pt   -1.21171   -0.69958    0.01668
 19 Pt    1.18065   -0.67732    0.02541
 20 Pt    0.00962   -0.03329    0.03357
 21 Pt    0.00375    1.36114    0.02541
 22 Pt    0.39463    0.22784   -0.02137
 23 Pt   -0.39099    0.22884   -0.03185
 24 Pt   -0.02402    0.02498    0.03357
 25 Pt    0.00269   -0.45303   -0.03185
 26 Pt    0.03470    0.02003    0.02066
 27 O     0.00432    0.00250    0.76992

System changes: positions

[...]

Density initialized from wave functions

           O     Pt     Pt     Pt
            Pt     Pt     Pt
       Pt     Pt  Pt Pt  Pt    Pt
             Pt     Pt     Pt
        Pt     Pt     Pt
                     Pt     Pt    Pt
                Pt     Pt     Pt

[...]

System changes: positions

Initializing position-dependent things.

Density initialized from wave functions

                 Pt     Pt     Pt
           OPt     Pt     Pt
                  Pt     Pt    Pt
       Pt    PPt    PPt    Pt

        Pt     Pt    PPt    Pt    Pt

                Pt     Pt     Pt
           Pt     Pt     Pt

Positions:
   0 Pt     1.402546    0.809760    6.000000    ( 0.0000,  0.0000,  0.0000)
   1 Pt     4.207639    0.809760    6.000000    ( 0.0000,  0.0000,  0.0000)
   2 Pt     7.012732    0.809760    6.000000    ( 0.0000,  0.0000,  0.0000)
   3 Pt     2.805093    3.239042    6.000000    ( 0.0000,  0.0000,  0.0000)
   4 Pt     5.610185    3.239042    6.000000    ( 0.0000,  0.0000,  0.0000)
   5 Pt     8.415278    3.239042    6.000000    ( 0.0000,  0.0000,  0.0000)
   6 Pt     4.207639    5.668323    6.000000    ( 0.0000,  0.0000,  0.0000)
   7 Pt     7.012732    5.668323    6.000000    ( 0.0000,  0.0000,  0.0000)
   8 Pt     9.817824    5.668323    6.000000    ( 0.0000,  0.0000,  0.0000)
   9 Pt    -0.000000    1.619521    8.290349    ( 0.0000,  0.0000,  0.0000)
  10 Pt     2.805093    1.619521    8.290349    ( 0.0000,  0.0000,  0.0000)
  11 Pt     5.610185    1.619521    8.290349    ( 0.0000,  0.0000,  0.0000)
  12 Pt     1.402546    4.048802    8.290349    ( 0.0000,  0.0000,  0.0000)
  13 Pt     4.207639    4.048802    8.290349    ( 0.0000,  0.0000,  0.0000)
  14 Pt     7.012732    4.048802    8.290349    ( 0.0000,  0.0000,  0.0000)
  15 Pt     2.805093    6.478084    8.290349    ( 0.0000,  0.0000,  0.0000)
  16 Pt     5.610185    6.478084    8.290349    ( 0.0000,  0.0000,  0.0000)
  17 Pt     8.415278    6.478084    8.290349    ( 0.0000,  0.0000,  0.0000)
  18 Pt     0.000000    0.000000   10.580697    ( 0.0000,  0.0000,  0.0000)
  19 Pt     2.805093    0.000000   10.580697    ( 0.0000,  0.0000,  0.0000)
  20 Pt     5.610185    0.000000   10.580697    ( 0.0000,  0.0000,  0.0000)
  21 Pt     1.402546    2.429281   10.580697    ( 0.0000,  0.0000,  0.0000)
  22 Pt     4.207639    2.429281   10.580697    ( 0.0000,  0.0000,  0.0000)
  23 Pt     7.012732    2.429281   10.580697    ( 0.0000,  0.0000,  0.0000)
  24 Pt     2.805093    4.858563   10.580697    ( 0.0000,  0.0000,  0.0000)
  25 Pt     5.610185    4.858563   10.580697    ( 0.0000,  0.0000,  0.0000)
  26 Pt     8.415278    4.858563   10.580697    ( 0.0000,  0.0000,  0.0000)
  27 O      1.403210    0.810144   11.835846    ( 0.0000,  0.0000,  0.0000)

Unit cell:
           periodic     x           y           z      points  spacing
  1. axis:    yes    8.415278    0.000000    0.000000    42     0.1735
  2. axis:    yes    4.207639    7.287844    0.000000    42     0.1735
  3. axis:    yes    0.000000    0.000000   16.580697    84     0.1974

  Lengths:   8.415278   8.415278  16.580697
  Angles:   90.000000  90.000000  60.000000

Effective grid spacing dv^(1/3) = 0.1900

     iter     time        total  log10-change:  magmom
                         energy  eigst   dens
iter:   1 13:55:02  -167.279938  -4.63           -0.0000
iter:   2 13:55:17  -167.286095  -4.40  -3.14    -0.0000
iter:   3 13:55:33  -167.272608c -4.68  -2.98    -0.0000
iter:   4 13:55:48  -167.267894c -5.73  -3.33    -0.0000
iter:   5 13:56:03  -167.267494c -6.37  -4.02c   -0.0000
iter:   6 13:56:19  -167.267487c -6.63  -4.25c   -0.0000
iter:   7 13:56:34  -167.267423c -6.71  -4.47c   -0.0000
iter:   8 13:56:50  -167.267379c -7.05  -4.59c   -0.0000
iter:   9 13:57:05  -167.267358c -7.88c -4.66c   -0.0000

Converged after 9 iterations.

Dipole moment: (-1.861345, -1.074648, -0.052828) |e|*Ang

Total magnetic moment: (0.000000, 0.000000, -0.000000)
Local magnetic moments:
   0 Pt ( 0.000000,  0.000000,  0.000000)
   1 Pt ( 0.000000,  0.000000, -0.000000)
   2 Pt ( 0.000000,  0.000000, -0.000000)
   3 Pt ( 0.000000,  0.000000, -0.000000)
   4 Pt ( 0.000000,  0.000000,  0.000000)
   5 Pt ( 0.000000,  0.000000,  0.000000)
   6 Pt ( 0.000000,  0.000000, -0.000000)
   7 Pt ( 0.000000,  0.000000,  0.000000)
   8 Pt ( 0.000000,  0.000000,  0.000000)
   9 Pt ( 0.000000,  0.000000, -0.000000)
  10 Pt ( 0.000000,  0.000000, -0.000000)
  11 Pt ( 0.000000,  0.000000, -0.000000)
  12 Pt ( 0.000000,  0.000000, -0.000000)
  13 Pt ( 0.000000,  0.000000, -0.000000)
  14 Pt ( 0.000000,  0.000000,  0.000000)
  15 Pt ( 0.000000,  0.000000, -0.000000)
  16 Pt ( 0.000000,  0.000000, -0.000000)
  17 Pt ( 0.000000,  0.000000, -0.000000)
  18 Pt ( 0.000000,  0.000000,  0.000000)
  19 Pt ( 0.000000,  0.000000, -0.000000)
  20 Pt ( 0.000000,  0.000000, -0.000000)
  21 Pt ( 0.000000,  0.000000, -0.000000)
  22 Pt ( 0.000000,  0.000000, -0.000000)
  23 Pt ( 0.000000,  0.000000,  0.000000)
  24 Pt ( 0.000000,  0.000000, -0.000000)
  25 Pt ( 0.000000,  0.000000,  0.000000)
  26 Pt ( 0.000000,  0.000000, -0.000000)
  27 O  ( 0.000000,  0.000000,  0.000000)

Energy contributions relative to reference atoms: (reference = -13512175.647022)

Kinetic:       -294.136296
Potential:     +224.599713
External:        +0.000000
XC:             -82.178149
Entropy (-ST):   -1.702851
Local:          -14.701200
Free energy:   -168.118784
Extrapolated:  -167.267358

Spin contamination: 0.000000 electrons
Showing only first 2 kpts
                      Up                     Down
 Kpt  Band  Eigenvalues  Occupancy  Eigenvalues  Occupancy
  0   217      1.30958    0.76117      1.30958    0.76117
  0   218      1.35360    0.67236      1.35360    0.67236
  0   219      1.37824    0.61596      1.37824    0.61596
  0   220      1.38979    0.58831      1.38979    0.58831

  1   217      1.20579    0.89998      1.20579    0.89998
  1   218      1.21456    0.89180      1.21456    0.89180
  1   219      1.24880    0.85407      1.24880    0.85407
  1   220      1.25031    0.85217      1.25031    0.85217

Fermi level: 1.42549

No gap

Forces in eV/Ang:
  0 Pt   -0.00577   -0.00333   -0.04772
  1 Pt    0.02832    0.01383   -0.08384
  2 Pt   -0.02894    0.01286   -0.09243
  3 Pt    0.02614    0.01761   -0.08384
  4 Pt    0.00084    0.00049   -0.11216
  5 Pt   -0.02911    0.02526   -0.09335
  6 Pt   -0.00334   -0.03150   -0.09243
  7 Pt    0.00732   -0.03784   -0.09335
  8 Pt   -0.00598   -0.00345   -0.39044
  9 Pt   -0.04318    0.01899   -0.31980
 10 Pt    0.04605    0.02659   -0.32296
 11 Pt    0.00181    0.02738    0.00589
 12 Pt    0.00049   -0.12228    0.44534
 13 Pt    0.02462   -0.01212    0.00589
 14 Pt   -0.02559   -0.01478    0.01047
 15 Pt    0.11339    0.06547    0.43461
 16 Pt   -0.00514   -0.04689   -0.31980
 17 Pt   -0.10566    0.06156    0.44534
 18 Pt   -0.95892   -0.55363    0.21698
 19 Pt    0.93377   -0.53380    0.22283
 20 Pt    0.00926   -0.03346    0.03997
 21 Pt    0.00461    1.07557    0.22283
 22 Pt    0.38412    0.22177   -0.01455
 23 Pt   -0.38147    0.22297   -0.02610
 24 Pt   -0.02435    0.02475    0.03997
 25 Pt    0.00236   -0.44185   -0.02610
 26 Pt    0.03563    0.02057    0.02630
 27 O    -0.00037   -0.00021    0.00041