User:   nicog@vera13-3
Date:   Fri Feb 24 14:25:12 2023
Arch:   x86_64
Pid:    2953712
CWD:    /cephyr/users/nicog/Vera/Computational_Materials_2023/A4
Python: 3.10.4
gpaw:   /apps/Arch/software/GPAW/22.8.0-foss-2022a/lib/python3.10/site-packages/gpaw
_gpaw:  /apps/Arch/software/GPAW/22.8.0-foss-2022a/lib/python3.10/site-packages/
        _gpaw.cpython-310-x86_64-linux-gnu.so
ase:    /apps/Arch/software/ASE/3.22.1-foss-2022a/lib/python3.10/site-packages/ase (version 3.22.1)
numpy:  /apps/Arch/software/SciPy-bundle/2022.05-foss-2022a/lib/python3.10/site-packages/numpy (version 1.22.3)
scipy:  /apps/Arch/software/SciPy-bundle/2022.05-foss-2022a/lib/python3.10/site-packages/scipy (version 1.8.1)
units:  Angstrom and eV
cores: 16
OpenMP: False
OMP_NUM_THREADS: 1

Input parameters:
  kpts: [4 4 1]
  mode: {ecut: 450.00000000000006,
         name: pw}
  spinpol: True
  xc: PBE

System changes: positions, numbers, cell, pbc, initial_charges, initial_magmoms

Initialize ...

species:
  Au:
    name: Gold
    id: b12133f335f6ca0d89c4b1ccaa844e9a
    Z: 79.0
    valence: 11
    core: 68
    charge: 0.0
    file: /apps/Common/software/GPAW-setups/0.9.20000/Au.PBE.gz
    compensation charges: {type: gauss,
                           rc: 0.42,
                           lmax: 2}
    cutoffs: {filter: 2.33,
              core: 2.81}
    valence states:
      #              energy  rcut
      - 6s(1.00)    -5.728   1.323
      - 6p(0.00)    -0.775   1.323
      - 5d(10.00)    -6.891   1.323
      -  s          21.484   1.323
      -  p          26.436   1.323
      -  d          20.321   1.323

    # Using partial waves for Au as LCAO basis

  O:
    name: Oxygen
    id: 32ecd46bf208036f09c70b0ec9a88b78
    Z: 8.0
    valence: 6
    core: 2
    charge: 0.0
    file: /apps/Common/software/GPAW-setups/0.9.20000/O.PBE.gz
    compensation charges: {type: gauss,
                           rc: 0.21,
                           lmax: 2}
    cutoffs: {filter: 1.17,
              core: 0.83}
    valence states:
      #              energy  rcut
      - 2s(2.00)   -23.961   0.688
      - 2p(4.00)    -9.029   0.598
      -  s           3.251   0.688
      -  p          18.182   0.598
      -  d           0.000   0.619

[...]

  C:
    name: Carbon
    id: 4aa54d4b901d75f77cc0ea3eec22967b
    Z: 6.0
    valence: 4
    core: 2
    charge: 0.0
    file: /apps/Common/software/GPAW-setups/0.9.20000/C.PBE.gz
    compensation charges: {type: gauss,
                           rc: 0.20,
                           lmax: 2}
    cutoffs: {filter: 1.14,
              core: 1.14}
    valence states:
      #              energy  rcut
      - 2s(2.00)   -13.751   0.635
      - 2p(2.00)    -5.284   0.635
      -  s          13.461   0.635
      -  p          21.927   0.635
      -  d           0.000   0.635

    # Using partial waves for C as LCAO basis

Reference energy: -13951221.800367  # eV

Spin-polarized calculation.
Magnetic moment: 0.000000

Convergence criteria:
 Maximum [total energy] change in last 3 cyles: 0.0005 eV / electron
 Maximum integral of absolute [dens]ity change: 0.0001 electrons / valence electron
 Maximum integral of absolute [eigenst]ate change: 4e-08 eV^2 / valence electron
 Maximum number of scf [iter]ations: 333
 (Square brackets indicate name in SCF output, whereas a 'c' in
 the SCF output indicates the quantity has converged.)

Symmetries present (total): 6

  ( 1  0  0)  ( 1 -1  0)  ( 0  1  0)  ( 0 -1  0)  (-1  1  0)  (-1  0  0)
  ( 0  1  0)  ( 0 -1  0)  ( 1  0  0)  ( 1 -1  0)  (-1  0  0)  (-1  1  0)
  ( 0  0  1)  ( 0  0  1)  ( 0  0  1)  ( 0  0  1)  ( 0  0  1)  ( 0  0  1)
Note: your k-points are not as symmetric as your crystal!

16 k-points: 4 x 4 x 1 Monkhorst-Pack grid
6 k-points in the irreducible part of the Brillouin zone
       k-points in crystal coordinates                weights
   0:     0.12500000   -0.12500000    0.00000000          2/16
   1:     0.12500000    0.12500000    0.00000000          2/16
   2:     0.37500000   -0.37500000    0.00000000          2/16
   3:     0.37500000   -0.12500000    0.00000000          4/16
   4:     0.37500000    0.12500000    0.00000000          4/16
   5:     0.37500000    0.37500000    0.00000000          2/16

Wave functions: Plane wave expansion
  Cutoff energy: 450.000 eV
  Number of coefficients (min, max): 24789, 24831
  Pulay-stress correction: 0.000000 eV/Ang^3 (de/decut=0.000000)
  Using FFTW library
  ScaLapack parameters: grid=1x1, blocksize=None
  Wavefunction extrapolation:
    Improved wavefunction reuse through dual PAW basis

Occupation numbers: Fermi-Dirac:
  width: 0.1000  # eV

Eigensolver
   Davidson(niter=2)

Densities:
  Coarse grid: 45*45*84 grid
  Fine grid: 90*90*168 grid
  Total Charge: 0.000000

Density mixing:
  Method: difference
  Backend: pulay
  Linear mixing parameter: 0.05
  old densities: 5
  Damping of long wavelength oscillations: 50

Hamiltonian:
  XC and Coulomb potentials evaluated on a 90*90*168 grid
  Using the PBE Exchange-Correlation functional
  External potential:
    NoExternalPotential

XC parameters: PBE with 2 nearest neighbor stencil

Total number of cores used: 16
Parallelization over k-points: 2
Domain decomposition: 2 x 2 x 2

Number of atoms: 29
Number of atomic orbitals: 251
Number of bands in calculation: 189
Number of valence electrons: 307
Bands to converge: occupied

... initialized

Initializing position-dependent things.

Density initialized from atomic densities
Creating initial wave functions:
  189 bands from LCAO basis set

       O
                  Au     Au     Au
       C
            Au     AAu    AAu    Au
       Au     Au     AAu    Au

        Au     Au     AAu    Au     Au

                 Au     Au     Au

[...]

Positions:
   0 Au     1.477146    0.852831    6.000000    ( 0.0000,  0.0000,  0.0000)
   1 Au     4.431438    0.852831    6.000000    ( 0.0000,  0.0000,  0.0000)
   2 Au     7.385730    0.852831    6.000000    ( 0.0000,  0.0000,  0.0000)
   3 Au     2.954292    3.411323    6.000000    ( 0.0000,  0.0000,  0.0000)
   4 Au     5.908584    3.411323    6.000000    ( 0.0000,  0.0000,  0.0000)
   5 Au     8.862876    3.411323    6.000000    ( 0.0000,  0.0000,  0.0000)
   6 Au     4.431438    5.969815    6.000000    ( 0.0000,  0.0000,  0.0000)
   7 Au     7.385730    5.969815    6.000000    ( 0.0000,  0.0000,  0.0000)
   8 Au    10.340022    5.969815    6.000000    ( 0.0000,  0.0000,  0.0000)
   9 Au     0.000000    1.705661    8.412169    ( 0.0000,  0.0000,  0.0000)
  10 Au     2.954292    1.705661    8.412169    ( 0.0000,  0.0000,  0.0000)
  11 Au     5.908584    1.705661    8.412169    ( 0.0000,  0.0000,  0.0000)
  12 Au     1.477146    4.264153    8.412169    ( 0.0000,  0.0000,  0.0000)
  13 Au     4.431438    4.264153    8.412169    ( 0.0000,  0.0000,  0.0000)
  14 Au     7.385730    4.264153    8.412169    ( 0.0000,  0.0000,  0.0000)
  15 Au     2.954292    6.822645    8.412169    ( 0.0000,  0.0000,  0.0000)
  16 Au     5.908584    6.822645    8.412169    ( 0.0000,  0.0000,  0.0000)
  17 Au     8.862876    6.822645    8.412169    ( 0.0000,  0.0000,  0.0000)
  18 Au     0.000000    0.000000   10.824339    ( 0.0000,  0.0000,  0.0000)
  19 Au     2.954292    0.000000   10.824339    ( 0.0000,  0.0000,  0.0000)
  20 Au     5.908584    0.000000   10.824339    ( 0.0000,  0.0000,  0.0000)
  21 Au     1.477146    2.558492   10.824339    ( 0.0000,  0.0000,  0.0000)
  22 Au     4.431438    2.558492   10.824339    ( 0.0000,  0.0000,  0.0000)
  23 Au     7.385730    2.558492   10.824339    ( 0.0000,  0.0000,  0.0000)
  24 Au     2.954292    5.116984   10.824339    ( 0.0000,  0.0000,  0.0000)
  25 Au     5.908584    5.116984   10.824339    ( 0.0000,  0.0000,  0.0000)
  26 Au     8.862876    5.116984   10.824339    ( 0.0000,  0.0000,  0.0000)
  27 O      0.000000    0.000000   13.974339    ( 0.0000,  0.0000,  0.0000)
  28 C      0.000000    0.000000   12.823999    ( 0.0000,  0.0000,  0.0000)

Unit cell:
           periodic     x           y           z      points  spacing
  1. axis:    yes    8.862876    0.000000    0.000000    45     0.1706
  2. axis:    yes    4.431438    7.675476    0.000000    45     0.1706
  3. axis:    yes    0.000000    0.000000   16.824339    84     0.2003

  Lengths:   8.862876   8.862876  16.824339
  Angles:   90.000000  90.000000  60.000000

Effective grid spacing dv^(1/3) = 0.1888

     iter     time        total  log10-change:  magmom
                         energy  eigst   dens
iter:   1 14:25:41  -100.902819                  +0.0000
iter:   2 14:25:52   -99.079402  -1.62  -1.32    -0.0000
iter:   3 14:26:03   -94.730125  -1.75  -1.35    -0.0000
iter:   4 14:26:14   -93.528443  -2.09  -1.55    +0.0000
iter:   5 14:26:25   -93.341854  -2.02  -1.76    +0.0000
iter:   6 14:26:36   -93.208664  -3.00  -2.08    +0.0000
iter:   7 14:26:47   -93.238480c -3.10  -2.23    +0.0000
iter:   8 14:26:58   -93.188899c -3.74  -2.45    +0.0000
iter:   9 14:27:09   -93.155504c -3.43  -2.61    +0.0000
iter:  10 14:27:20   -93.153531c -4.72  -2.92    +0.0000
iter:  11 14:27:31   -93.151162c -4.58  -2.98    +0.0000
iter:  12 14:27:42   -93.150782c -4.30  -3.16    +0.0000
iter:  13 14:27:53   -93.150062c -5.56  -3.14    +0.0000
iter:  14 14:28:04   -93.149643c -5.11  -3.26    +0.0000
iter:  15 14:28:15   -93.149543c -5.41  -3.58    +0.0000
iter:  16 14:28:26   -93.149570c -5.59  -3.66    +0.0000
iter:  17 14:28:37   -93.149623c -6.42  -3.95    +0.0000
iter:  18 14:28:48   -93.149507c -6.04  -4.01c   +0.0000
iter:  19 14:28:59   -93.149530c -6.99  -4.19c   +0.0000
iter:  20 14:29:10   -93.149529c -7.64c -4.34c   +0.0000

Converged after 20 iterations.

Dipole moment: (-0.107932, -0.062315, 0.235315) |e|*Ang

Total magnetic moment: (0.000000, 0.000000, 0.000000)
Local magnetic moments:
   0 Au ( 0.000000,  0.000000,  0.000000)
   1 Au ( 0.000000,  0.000000,  0.000000)
   2 Au ( 0.000000,  0.000000,  0.000000)
   3 Au ( 0.000000,  0.000000,  0.000000)
   4 Au ( 0.000000,  0.000000,  0.000000)
   5 Au ( 0.000000,  0.000000, -0.000000)
   6 Au ( 0.000000,  0.000000,  0.000000)
   7 Au ( 0.000000,  0.000000, -0.000000)
   8 Au ( 0.000000,  0.000000, -0.000000)
   9 Au ( 0.000000,  0.000000, -0.000000)
  10 Au ( 0.000000,  0.000000,  0.000000)
  11 Au ( 0.000000,  0.000000,  0.000000)
  12 Au ( 0.000000,  0.000000, -0.000000)
  13 Au ( 0.000000,  0.000000,  0.000000)
  14 Au ( 0.000000,  0.000000, -0.000000)
  15 Au ( 0.000000,  0.000000, -0.000000)
  16 Au ( 0.000000,  0.000000, -0.000000)
  17 Au ( 0.000000,  0.000000, -0.000000)
  18 Au ( 0.000000,  0.000000, -0.000000)
  19 Au ( 0.000000,  0.000000,  0.000000)
  20 Au ( 0.000000,  0.000000,  0.000000)
  21 Au ( 0.000000,  0.000000,  0.000000)
  22 Au ( 0.000000,  0.000000,  0.000000)
  23 Au ( 0.000000,  0.000000,  0.000000)
  24 Au ( 0.000000,  0.000000,  0.000000)
  25 Au ( 0.000000,  0.000000,  0.000000)
  26 Au ( 0.000000,  0.000000, -0.000000)
  27 O  ( 0.000000,  0.000000, -0.000000)
  28 C  ( 0.000000,  0.000000, -0.000000)

Energy contributions relative to reference atoms: (reference = -13951221.800367)

Kinetic:       -291.983509
Potential:     +231.216568
External:        +0.000000
XC:             -35.261442
Entropy (-ST):   -0.307229
Local:           +3.032468
Free energy:    -93.303143
Extrapolated:   -93.149529

Spin contamination: 0.000000 electrons
Showing only first 2 kpts
                      Up                     Down
 Kpt  Band  Eigenvalues  Occupancy  Eigenvalues  Occupancy
  0   151     -0.14755    1.00000     -0.14755    1.00000
  0   152      0.23574    0.99980      0.23574    0.99980
  0   153      0.56009    0.99498      0.56009    0.99498
  0   154      0.63999    0.98892      0.63999    0.98892

  1   151     -0.22111    1.00000     -0.22111    1.00000
  1   152     -0.15786    1.00000     -0.15786    1.00000
  1   153      0.01374    0.99998      0.01374    0.99998
  1   154      0.42999    0.99863      0.42999    0.99863

Fermi level: 1.08911

No gap

Forces in eV/Ang:
  0 Au    0.00400    0.00231   -0.07539
  1 Au   -0.00000    0.01688   -0.02411
  2 Au   -0.00400    0.00231   -0.07539
  3 Au    0.01462   -0.00844   -0.02411
  4 Au   -0.01462   -0.00844   -0.02411
  5 Au    0.00000    0.03064   -0.02774
  6 Au   -0.00000   -0.00462   -0.07539
  7 Au    0.02653   -0.01532   -0.02774
  8 Au   -0.02653   -0.01532   -0.02774
  9 Au    0.00000   -0.10538    0.09579
 10 Au    0.02290    0.01322    0.01241
 11 Au   -0.02290    0.01322    0.01241
 12 Au   -0.02111    0.01219   -0.02030
 13 Au    0.00000   -0.02644    0.01241
 14 Au    0.02111    0.01219   -0.02030
 15 Au    0.09126    0.05269    0.09579
 16 Au   -0.09126    0.05269    0.09579
 17 Au    0.00000   -0.02437   -0.02030
 18 Au   -0.00000    0.00000   -0.34111
 19 Au    0.28663    0.01731   -0.03208
 20 Au   -0.28663    0.01731   -0.03208
 21 Au    0.15831    0.23957   -0.03208
 22 Au    0.00000    0.00000    0.04634
 23 Au   -0.15831    0.23957   -0.03208
 24 Au   -0.12832   -0.25689   -0.03208
 25 Au    0.12832   -0.25689   -0.03208
 26 Au    0.00000    0.00000    0.02043
 27 O     0.00000   -0.00000   -0.29051
 28 C    -0.00000    0.00000    0.94256

System changes: positions

[...]

Density initialized from wave functions

       O
       C          Au     Au     Au
            Au      Au     Au
                   Au     Au     Au
       Au     Au     AAu    Au

[...]

       O
       C          Au     Au     Au

            Au     AAu    AAu    Au
       Au     Au      Au
              Au     Au     Au
        Au     Au     AAu    Au     Au

[...]

       O
       C          Au     Au     Au

            Au     AAu    AAu    Au
       Au     Au     AAu    Au

[...]

       O          Au     Au     Au
       C
            Au     AAu    AAu    Au
       Au     Au      Au
              Au     Au     Au
        Au     Au     AAu    Au     Au

[...]

       O
                  Au     Au     Au
       C
            Au     AAu    AAu    Au
       Au     Au      Au
              Au     Au     Au
        Au     Au     AAu    Au     Au

[...]

       O
                  Au     Au     Au
       C
            Au     AAu    AAu    Au
       Au     Au      Au
              Au     Au     Au
        Au     Au     AAu    Au     Au

[...]

System changes: positions

Initializing position-dependent things.

Density initialized from wave functions

       O
                  Au     Au     Au
       C
            Au     AAu    AAu    Au
       Au     Au     AAu    Au

        Au     Au     AAu    Au     Au

[...]

           Au      Au     Au

Positions:
   0 Au     1.477146    0.852831    6.000000    ( 0.0000,  0.0000,  0.0000)
   1 Au     4.431438    0.852831    6.000000    ( 0.0000,  0.0000,  0.0000)
   2 Au     7.385730    0.852831    6.000000    ( 0.0000,  0.0000,  0.0000)
   3 Au     2.954292    3.411323    6.000000    ( 0.0000,  0.0000,  0.0000)
   4 Au     5.908584    3.411323    6.000000    ( 0.0000,  0.0000,  0.0000)
   5 Au     8.862876    3.411323    6.000000    ( 0.0000,  0.0000,  0.0000)
   6 Au     4.431438    5.969815    6.000000    ( 0.0000,  0.0000,  0.0000)
   7 Au     7.385730    5.969815    6.000000    ( 0.0000,  0.0000,  0.0000)
   8 Au    10.340022    5.969815    6.000000    ( 0.0000,  0.0000,  0.0000)
   9 Au     0.000000    1.705661    8.412169    ( 0.0000,  0.0000,  0.0000)
  10 Au     2.954292    1.705661    8.412169    ( 0.0000,  0.0000,  0.0000)
  11 Au     5.908584    1.705661    8.412169    ( 0.0000,  0.0000,  0.0000)
  12 Au     1.477146    4.264153    8.412169    ( 0.0000,  0.0000,  0.0000)
  13 Au     4.431438    4.264153    8.412169    ( 0.0000,  0.0000,  0.0000)
  14 Au     7.385730    4.264153    8.412169    ( 0.0000,  0.0000,  0.0000)
  15 Au     2.954292    6.822645    8.412169    ( 0.0000,  0.0000,  0.0000)
  16 Au     5.908584    6.822645    8.412169    ( 0.0000,  0.0000,  0.0000)
  17 Au     8.862876    6.822645    8.412169    ( 0.0000,  0.0000,  0.0000)
  18 Au     0.000000    0.000000   10.824339    ( 0.0000,  0.0000,  0.0000)
  19 Au     2.954292    0.000000   10.824339    ( 0.0000,  0.0000,  0.0000)
  20 Au     5.908584    0.000000   10.824339    ( 0.0000,  0.0000,  0.0000)
  21 Au     1.477146    2.558492   10.824339    ( 0.0000,  0.0000,  0.0000)
  22 Au     4.431438    2.558492   10.824339    ( 0.0000,  0.0000,  0.0000)
  23 Au     7.385730    2.558492   10.824339    ( 0.0000,  0.0000,  0.0000)
  24 Au     2.954292    5.116984   10.824339    ( 0.0000,  0.0000,  0.0000)
  25 Au     5.908584    5.116984   10.824339    ( 0.0000,  0.0000,  0.0000)
  26 Au     8.862876    5.116984   10.824339    ( 0.0000,  0.0000,  0.0000)
  27 O     -0.000000   -0.000000   14.053655    ( 0.0000,  0.0000,  0.0000)
  28 C      0.000000    0.000000   12.908925    ( 0.0000,  0.0000,  0.0000)

Unit cell:
           periodic     x           y           z      points  spacing
  1. axis:    yes    8.862876    0.000000    0.000000    45     0.1706
  2. axis:    yes    4.431438    7.675476    0.000000    45     0.1706
  3. axis:    yes    0.000000    0.000000   16.824339    84     0.2003

  Lengths:   8.862876   8.862876  16.824339
  Angles:   90.000000  90.000000  60.000000

Effective grid spacing dv^(1/3) = 0.1888

     iter     time        total  log10-change:  magmom
                         energy  eigst   dens
iter:   1 14:58:10   -93.170712  -5.16           -0.0000
iter:   2 14:58:21   -93.170692  -6.43  -4.21c   -0.0000
iter:   3 14:58:31   -93.170672c -6.90  -4.45c   +0.0000
iter:   4 14:58:42   -93.170653c -6.90  -4.63c   +0.0000
iter:   5 14:58:53   -93.170663c -7.35  -4.70c   +0.0000
iter:   6 14:59:04   -93.170671c -7.76c -4.93c   +0.0000

Converged after 6 iterations.

Dipole moment: (-0.111297, -0.064257, 0.274669) |e|*Ang

Total magnetic moment: (0.000000, 0.000000, 0.000000)
Local magnetic moments:
   0 Au ( 0.000000,  0.000000,  0.000000)
   1 Au ( 0.000000,  0.000000, -0.000000)
   2 Au ( 0.000000,  0.000000,  0.000000)
   3 Au ( 0.000000,  0.000000, -0.000000)
   4 Au ( 0.000000,  0.000000, -0.000000)
   5 Au ( 0.000000,  0.000000, -0.000000)
   6 Au ( 0.000000,  0.000000,  0.000000)
   7 Au ( 0.000000,  0.000000, -0.000000)
   8 Au ( 0.000000,  0.000000, -0.000000)
   9 Au ( 0.000000,  0.000000, -0.000000)
  10 Au ( 0.000000,  0.000000,  0.000000)
  11 Au ( 0.000000,  0.000000,  0.000000)
  12 Au ( 0.000000,  0.000000,  0.000000)
  13 Au ( 0.000000,  0.000000,  0.000000)
  14 Au ( 0.000000,  0.000000,  0.000000)
  15 Au ( 0.000000,  0.000000, -0.000000)
  16 Au ( 0.000000,  0.000000, -0.000000)
  17 Au ( 0.000000,  0.000000,  0.000000)
  18 Au ( 0.000000,  0.000000,  0.000000)
  19 Au ( 0.000000,  0.000000,  0.000000)
  20 Au ( 0.000000,  0.000000,  0.000000)
  21 Au ( 0.000000,  0.000000,  0.000000)
  22 Au ( 0.000000,  0.000000, -0.000000)
  23 Au ( 0.000000,  0.000000,  0.000000)
  24 Au ( 0.000000,  0.000000,  0.000000)
  25 Au ( 0.000000,  0.000000,  0.000000)
  26 Au ( 0.000000,  0.000000, -0.000000)
  27 O  ( 0.000000,  0.000000, -0.000000)
  28 C  ( 0.000000,  0.000000, -0.000000)

Energy contributions relative to reference atoms: (reference = -13951221.800367)

Kinetic:       -294.925840
Potential:     +233.849368
External:        +0.000000
XC:             -34.982081
Entropy (-ST):   -0.305529
Local:           +3.040646
Free energy:    -93.323436
Extrapolated:   -93.170671

Spin contamination: 0.000000 electrons
Showing only first 2 kpts
                      Up                     Down
 Kpt  Band  Eigenvalues  Occupancy  Eigenvalues  Occupancy
  0   151     -0.13735    1.00000     -0.13735    1.00000
  0   152      0.22281    0.99985      0.22281    0.99985
  0   153      0.57082    0.99501      0.57082    0.99501
  0   154      0.63205    0.99083      0.63205    0.99083

  1   151     -0.20947    1.00000     -0.20947    1.00000
  1   152     -0.14493    1.00000     -0.14493    1.00000
  1   153      0.02282    0.99998      0.02282    0.99998
  1   154      0.38389    0.99923      0.38389    0.99923

Fermi level: 1.10027

No gap

Forces in eV/Ang:
  0 Au    0.00388    0.00224   -0.07449
  1 Au    0.00000    0.01551   -0.03144
  2 Au   -0.00388    0.00224   -0.07449
  3 Au    0.01343   -0.00776   -0.03144
  4 Au   -0.01343   -0.00776   -0.03144
  5 Au   -0.00000    0.02882   -0.03282
  6 Au    0.00000   -0.00448   -0.07449
  7 Au    0.02496   -0.01441   -0.03282
  8 Au   -0.02496   -0.01441   -0.03282
  9 Au    0.00000   -0.09191    0.09955
 10 Au    0.02318    0.01338    0.01281
 11 Au   -0.02318    0.01338    0.01281
 12 Au   -0.02081    0.01201   -0.02135
 13 Au    0.00000   -0.02677    0.01281
 14 Au    0.02081    0.01201   -0.02135
 15 Au    0.07959    0.04595    0.09955
 16 Au   -0.07959    0.04595    0.09955
 17 Au    0.00000   -0.02403   -0.02135
 18 Au    0.00000    0.00000    0.27384
 19 Au    0.25643    0.01599   -0.02822
 20 Au   -0.25643    0.01599   -0.02822
 21 Au    0.14206    0.21409   -0.02822
 22 Au    0.00000    0.00000    0.05035
 23 Au   -0.14206    0.21409   -0.02822
 24 Au   -0.11437   -0.23007   -0.02822
 25 Au    0.11437   -0.23007   -0.02822
 26 Au    0.00000    0.00000    0.02633
 27 O     0.00000    0.00000    0.01749
 28 C     0.00000    0.00000   -0.09896